##TITLE=N-3-Aminopropylmorpholine
##JCAMP-DX=4.24
##DATA TYPE=INFRARED SPECTRUM
##ORIGIN=NIST Mass Spectrometry Data Center
##OWNER=NIST Standard Reference Data Program
Collection (C) 2003 copyright by the U.S. Secretary of Commerce
on behalf of the United States of America. All rights reserved.
##CAS REGISTRY NO=123-00-2
##MOLFORM=C7H16N2O
##$NIST SOURCE=MSDC-IR
##SPECTROMETER/DATA SYSTEM=HP-GC/MS/IRD
##STATE=gas
##XUNITS=1/CM
##YUNITS=ABSORBANCE
##XFACTOR=1.0
##YFACTOR=0.000002400
##DELTAX=4.0
##FIRSTX=550.0
##LASTX=3846.0
##FIRSTY=0.000142
##MAXX=3846
##MINX=550
##MAXY=0.024
##MINY=0
##NPOINTS=825
##XYDATA=(X++(Y..Y))
550.0 59 76 43 45 18 28 25 37 108 146
590.0 169 217 300 392 452 536 626 669 652 589
630.0 543 538 445 350 353 359 356 365 381 432
670.0 449 476 526 541 547 571 646 722 766 828
710.0 922 1009 1129 1293 1467 1663 1868 2078 2279 2410
750.0 2518 2616 2686 2747 2745 2737 2747 2676 2532 2355
790.0 2154 1948 1784 1623 1471 1329 1197 1090 1006 943
830.0 889 867 875 935 1027 1181 1468 1854 2256 2580
870.0 2683 2493 2129 1749 1449 1271 1175 1131 1171 1247
910.0 1286 1295 1260 1176 1070 962 865 814 805 801
950.0 809 818 822 846 860 864 863 868 887 942
990.0 1063 1250 1497 1760 1925 1927 1845 1677 1505 1415
1030.0 1326 1224 1110 1036 990 981 1047 1202 1419 1625
1070.0 1795 1916 1926 1874 1858 1914 2132 2574 3300 4354
1110.0 5674 7131 8518 9537 10000 9831 9007 7771 6437 5096
1150.0 3869 2898 2184 1678 1326 1071 901 781 682 607
1190.0 587 579 578 591 592 596 588 586 593 622
1230.0 691 760 841 967 1099 1227 1373 1536 1697 1835
1270.0 1956 2029 2040 2023 1987 1961 1940 1905 1829 1726
1310.0 1606 1493 1424 1386 1376 1401 1447 1520 1602 1706
1350.0 1855 1953 1973 1946 1876 1753 1611 1464 1317 1198
1390.0 1122 1045 950 832 706 578 483 441 437 492
1430.0 611 797 1057 1365 1655 1851 1965 1950 1808 1604
1470.0 1368 1099 834 613 447 342 275 232 207 202
1510.0 187 157 144 144 143 140 135 139 137 137
1550.0 142 156 171 161 159 168 191 221 238 262
1590.0 299 339 395 466 545 634 740 823 856 837
1630.0 770 666 541 440 370 319 262 203 168 144
1670.0 117 102 92 88 80 65 69 82 71 57
1710.0 53 63 72 59 55 65 64 52 52 48
1750.0 44 38 35 35 48 57 40 38 40 37
1790.0 36 27 16 15 22 22 26 27 28 32
1830.0 28 23 20 24 32 32 25 29 26 25
1870.0 36 40 32 25 34 36 32 30 29 31
1910.0 34 37 41 52 57 53 49 52 55 43
1950.0 37 45 50 55 67 80 90 97 100 99
1990.0 85 68 55 38 27 23 13 12 10 9
2030.0 0 1 12 15 17 13 17 16 12 16
2070.0 16 21 28 24 16 17 15 10 8 6
2110.0 8 13 13 15 9 8 9 8 12 11
2150.0 17 10 6 11 10 16 19 12 9 10
2190.0 16 18 16 14 17 23 30 38 33 26
2230.0 35 46 40 48 62 71 69 58 61 74
2270.0 87 86 76 72 72 64 67 78 73 72
2310.0 68 61 54 50 47 57 62 61 59 42
2350.0 34 52 66 62 55 59 65 54 39 36
2390.0 39 36 39 39 38 47 45 42 41 41
2430.0 36 23 17 22 34 39 41 48 55 62
2470.0 61 64 69 80 81 73 67 71 81 86
2510.0 78 74 71 70 74 84 91 93 93 94
2550.0 106 113 133 142 149 154 154 152 153 156
2590.0 160 177 200 219 223 232 247 257 272 303
2630.0 339 370 414 462 505 550 606 654 701 752
2670.0 807 872 952 1026 1074 1112 1122 1122 1128 1138
2710.0 1169 1230 1287 1354 1448 1550 1653 1762 1872 2024
2750.0 2216 2397 2594 2788 2953 3132 3324 3540 3844 4284
2790.0 4875 5616 6450 7240 7791 8000 7824 7295 6574 5824
2830.0 5182 4752 4622 4864 5474 6411 7501 8422 8826 8525
2870.0 7764 6874 6061 5445 5068 4925 4968 5142 5360 5601
2910.0 5891 6283 6776 7351 7989 8601 9129 9507 9678 9604
2950.0 9339 9065 9025 9368 9411 8787 7845 6193 4135 2606
2990.0 1704 1152 837 660 564 488 419 371 340 314
3030.0 280 264 237 221 207 184 186 182 163 141
3070.0 131 131 111 110 113 112 121 99 95 102
3110.0 95 100 98 98 98 94 96 95 84 76
3150.0 82 89 94 91 88 98 101 76 64 80
3190.0 98 79 53 74 78 69 72 82 88 78
3230.0 87 89 76 59 54 67 67 69 73 56
3270.0 55 61 52 53 71 67 51 60 66 67
3310.0 69 93 108 117 147 147 153 174 168 173
3350.0 168 137 95 88 99 88 70 65 66 52
3390.0 57 82 106 122 140 135 95 93 116 99
3430.0 81 68 55 37 41 44 39 42 21 21
3470.0 33 28 36 38 22 45 61 52 45 19
3510.0 20 27 20 29 37 42 34 15 26 33
3550.0 18 20 24 39 50 57 62 58 59 60
3590.0 69 50 31 33 29 46 51 27 30 42
3630.0 40 21 14 30 46 44 31 43 44 37
3670.0 42 56 46 29 19 22 30 37 28 10
3710.0 25 34 35 38 34 34 49 65 73 67
3750.0 62 55 24 40 71 49 40 64 67 48
3790.0 49 56 72 86 59 46 51 57 69 67
3830.0 73 85 61 59 78
##END=
