##TITLE=1-Phenyltridecane
##JCAMP-DX=4.24
##DATA TYPE=INFRARED SPECTRUM
##ORIGIN=NIST Mass Spectrometry Data Center
##OWNER=NIST Standard Reference Data Program
Collection (C) 2003 copyright by the U.S. Secretary of Commerce
on behalf of the United States of America. All rights reserved.
##CAS REGISTRY NO=123-02-4
##MOLFORM=C19H32
##$NIST SOURCE=MSDC-IR
##SPECTROMETER/DATA SYSTEM=HP-GC/MS/IRD
##STATE=gas
##XUNITS=1/CM
##YUNITS=ABSORBANCE
##XFACTOR=1.0
##YFACTOR=0.000009100
##DELTAX=4.0
##FIRSTX=550.0
##LASTX=3846.0
##FIRSTY=0.000819
##MAXX=3846
##MINX=550
##MAXY=0.091
##MINY=0
##NPOINTS=825
##XYDATA=(X++(Y..Y))
550.0 90 100 107 109 114 115 109 109 107 100
590.0 90 67 48 40 18 0 12 25 32 39
630.0 46 43 40 45 47 53 67 88 117 144
670.0 179 220 276 367 504 711 940 1010 902 779
710.0 692 647 640 648 663 705 757 771 729 626
750.0 503 399 307 230 189 159 129 114 104 84
790.0 77 79 74 72 65 58 60 67 64 60
830.0 53 56 58 49 44 47 43 38 39 39
870.0 39 41 42 47 54 65 71 75 81 81
910.0 76 66 56 53 49 48 46 43 44 42
950.0 41 40 35 33 29 28 31 33 31 30
990.0 30 32 36 39 46 54 62 78 107 154
1030.0 184 160 112 81 73 78 83 89 95 103
1070.0 108 104 99 92 84 75 63 57 59 57
1110.0 55 57 55 49 47 49 46 40 39 42
1150.0 45 41 34 36 37 42 51 57 64 66
1190.0 71 76 76 72 66 63 64 68 65 66
1230.0 75 83 84 78 76 73 71 76 83 88
1270.0 94 99 105 114 126 140 149 160 167 174
1310.0 181 188 188 178 176 188 224 277 299 308
1350.0 327 329 319 307 274 250 236 217 203 199
1390.0 173 159 152 130 125 123 140 175 180 183
1430.0 215 295 385 473 610 731 854 914 864 776
1470.0 669 552 420 355 379 453 530 524 401 311
1510.0 232 158 147 140 111 94 95 115 122 96
1550.0 80 93 124 91 66 78 93 106 107 133
1590.0 162 197 232 257 244 184 131 98 72 56
1630.0 47 62 54 43 58 82 84 42 28 33
1670.0 41 45 41 63 63 35 53 82 69 42
1710.0 34 59 69 39 30 60 85 62 46 53
1750.0 66 52 40 40 48 63 53 46 59 69
1790.0 87 91 78 73 54 44 36 32 32 36
1830.0 34 24 23 42 49 36 32 38 44 55
1870.0 56 44 42 38 31 26 20 16 14 16
1910.0 20 25 36 42 43 47 54 58 62 59
1950.0 52 45 30 19 16 14 10 7 6 6
1990.0 10 10 8 8 9 8 12 16 13 13
2030.0 13 15 14 13 12 11 10 11 13 14
2070.0 11 9 9 7 6 7 7 5 2 3
2110.0 5 6 4 3 6 8 6 5 7 10
2150.0 8 9 8 5 5 7 6 6 8 8
2190.0 8 9 8 8 7 7 6 5 1 2
2230.0 6 5 5 4 3 2 4 8 7 6
2270.0 8 12 12 10 11 14 18 23 27 30
2310.0 34 41 47 51 55 59 61 59 54 43
2350.0 40 56 72 79 74 61 47 32 22 17
2390.0 15 13 12 13 12 11 13 14 12 14
2430.0 15 14 13 12 14 12 11 12 14 15
2470.0 13 14 15 16 15 11 12 15 16 18
2510.0 20 21 22 23 26 28 29 27 26 27
2550.0 28 27 29 30 32 35 38 40 40 41
2590.0 43 44 49 53 55 55 57 63 64 60
2630.0 65 71 75 75 77 80 83 86 88 94
2670.0 99 98 99 101 100 99 99 98 94 91
2710.0 89 88 87 88 91 95 101 106 105 105
2750.0 107 110 117 124 129 136 146 160 175 184
2790.0 202 220 238 260 281 312 345 385 435 493
2830.0 565 660 792 999 1330 1849 2578 3363 3834 3768
2870.0 3324 2813 2429 2199 2067 2016 2085 2287 2625 3098
2910.0 3686 4427 5440 6825 8436 9710 10000 9195 7703 6048
2950.0 4637 3659 3093 2810 2615 2332 1913 1486 1157 929
2990.0 777 676 610 577 561 562 585 641 745 873
3030.0 976 973 850 690 574 522 522 570 669 791
3070.0 845 769 642 548 487 432 376 325 284 247
3110.0 212 176 144 116 95 80 70 66 64 61
3150.0 58 59 61 53 50 51 50 44 42 41
3190.0 40 36 24 23 27 29 30 22 15 13
3230.0 15 19 17 17 16 16 16 18 13 10
3270.0 16 19 13 7 7 8 5 7 9 10
3310.0 8 4 9 10 9 9 9 12 10 8
3350.0 12 7 5 12 14 9 3 5 7 7
3390.0 10 8 3 3 1 4 8 4 4 10
3430.0 6 9 8 12 15 7 5 8 4 2
3470.0 2 5 13 12 4 0 0 6 13 12
3510.0 11 5 5 19 20 6 6 3 9 22
3550.0 12 10 12 17 42 30 2 1 11 37
3590.0 35 19 17 13 24 35 38 42 26 41
3630.0 51 20 10 15 47 62 41 24 8 20
3670.0 44 45 30 11 21 32 14 9 18 21
3710.0 34 31 17 30 36 35 63 50 50 64
3750.0 58 38 17 19 21 23 14 14 15 9
3790.0 6 12 21 25 18 8 17 37 32 18
3830.0 24 40 41 32 16
##END=
