##TITLE=4-Heptanone
##JCAMP-DX=4.24
##DATA TYPE=INFRARED SPECTRUM
##ORIGIN=NIST Mass Spectrometry Data Center
##OWNER=NIST Standard Reference Data Program
Collection (C) 2003 copyright by the U.S. Secretary of Commerce
on behalf of the United States of America. All rights reserved.
##CAS REGISTRY NO=123-19-3
##MOLFORM=C7H14O
##$NIST SOURCE=MSDC-IR
##SPECTROMETER/DATA SYSTEM=HP-GC/MS/IRD
##STATE=gas
##XUNITS=1/CM
##YUNITS=ABSORBANCE
##XFACTOR=1.0
##YFACTOR=0.000001500
##DELTAX=4.0
##FIRSTX=550.0
##LASTX=3846.0
##FIRSTY=0.000164
##MAXX=3846
##MINX=550
##MAXY=0.015
##MINY=0
##NPOINTS=825
##XYDATA=(X++(Y..Y))
550.0 109 37 45 134 87 2 30 30 26 59
590.0 85 99 95 133 179 169 160 183 207 213
630.0 205 170 162 188 200 156 99 74 111 121
670.0 138 155 107 81 94 94 130 155 168 177
710.0 178 184 192 232 270 266 255 285 319 324
750.0 328 357 380 406 429 436 447 456 468 465
790.0 436 440 432 395 399 375 351 341 332 320
830.0 282 268 272 266 266 277 304 336 358 359
870.0 360 349 362 396 379 359 360 349 342 328
910.0 322 287 247 233 206 215 201 185 189 188
950.0 182 191 203 208 221 246 276 326 403 497
990.0 588 690 810 922 1023 1120 1202 1283 1326 1295
1030.0 1241 1166 1065 973 919 870 817 788 736 654
1070.0 599 577 561 539 547 578 617 692 780 876
1110.0 993 1158 1370 1566 1730 1871 1938 1933 1892 1852
1150.0 1790 1775 1786 1738 1629 1486 1308 1107 923 784
1190.0 681 608 568 552 558 581 604 616 619 626
1230.0 626 625 628 645 677 713 771 849 937 1020
1270.0 1069 1110 1144 1151 1151 1145 1119 1075 1001 921
1310.0 859 823 810 836 899 1000 1147 1317 1536 1784
1350.0 2032 2277 2440 2499 2431 2248 2008 1743 1510 1346
1390.0 1270 1227 1188 1171 1194 1241 1295 1327 1337 1344
1430.0 1341 1339 1370 1421 1491 1570 1647 1678 1649 1563
1470.0 1426 1271 1101 933 782 667 572 496 436 392
1510.0 341 295 272 255 232 217 200 198 196 178
1550.0 154 152 174 164 149 147 148 157 152 145
1590.0 149 154 163 169 168 163 167 186 193 191
1630.0 193 215 222 215 224 248 281 301 334 385
1670.0 446 535 649 798 1004 1276 1669 2218 2934 3819
1710.0 4830 5840 6741 7342 7515 7217 6454 5369 4160 3036
1750.0 2130 1477 1041 773 595 473 388 318 275 239
1790.0 202 186 168 145 131 122 116 110 111 103
1830.0 97 97 92 88 80 69 70 73 73 73
1870.0 76 76 74 68 69 68 56 57 56 51
1910.0 43 41 48 46 43 38 30 31 39 37
1950.0 30 36 34 33 31 19 22 21 26 37
1990.0 32 28 24 21 26 27 26 29 32 25
2030.0 28 35 32 29 24 24 19 21 21 23
2070.0 25 16 22 26 24 19 8 11 29 34
2110.0 30 33 26 21 29 28 21 22 14 18
2150.0 27 21 12 21 22 20 24 20 15 22
2190.0 24 24 22 22 28 21 25 29 26 14
2230.0 11 20 16 5 0 7 14 17 23 22
2270.0 16 17 18 21 24 27 28 27 23 23
2310.0 19 23 26 28 33 36 36 30 31 31
2350.0 32 34 33 30 38 41 25 19 24 27
2390.0 30 41 46 41 38 44 40 33 25 23
2430.0 31 34 35 30 30 37 36 30 17 22
2470.0 35 37 35 27 26 45 49 37 37 47
2510.0 46 38 35 35 48 54 49 48 49 55
2550.0 43 33 33 36 50 57 59 65 63 52
2590.0 61 73 73 63 52 58 80 81 71 82
2630.0 78 69 87 94 91 94 100 111 116 112
2670.0 125 134 126 130 153 158 140 127 147 158
2710.0 153 157 163 170 188 209 226 239 245 253
2750.0 258 264 264 256 265 287 299 312 341 368
2790.0 387 420 452 474 500 533 584 616 646 689
2830.0 743 800 866 968 1076 1195 1357 1574 1855 2238
2870.0 2731 3318 3933 4399 4693 4858 4857 4779 4729 4743
2910.0 4818 4932 5072 5266 5548 5972 6484 6971 7354 7654
2950.0 7927 8203 8596 9189 9787 10000 9709 8995 7781 6336
2990.0 4980 3854 2990 2390 1947 1600 1348 1154 990 868
3030.0 775 688 617 573 521 470 443 423 403 376
3070.0 364 356 330 324 329 331 315 285 290 293
3110.0 279 263 243 248 259 246 224 214 214 208
3150.0 210 198 191 202 191 171 152 153 156 138
3190.0 128 130 146 131 112 112 117 116 104 102
3230.0 103 96 86 88 89 80 69 69 76 91
3270.0 88 76 78 81 65 58 74 88 90 69
3310.0 76 80 62 71 84 54 37 71 78 59
3350.0 62 62 66 78 87 78 72 81 90 86
3390.0 76 91 103 113 135 140 160 175 184 193
3430.0 178 171 156 127 120 109 100 92 68 53
3470.0 59 56 46 38 42 54 37 15 11 13
3510.0 2 13 29 11 28 43 20 7 0 19
3550.0 33 47 40 18 12 6 15 26 15 15
3590.0 21 23 35 36 26 13 17 18 22 42
3630.0 39 32 26 21 29 39 29 21 25 39
3670.0 52 61 48 22 26 30 26 16 15 30
3710.0 58 70 41 15 31 63 77 65 72 74
3750.0 50 30 19 20 38 48 45 39 33 37
3790.0 59 71 65 60 61 57 48 54 50 31
3830.0 12 14 29 48 49
##END=
