##TITLE=2-(Ethylthio)nicotinyl chloride
##JCAMP-DX=4.24
##DATA TYPE=INFRARED SPECTRUM
##ORIGIN=EPA-IR VAPOR PHASE LIBRARY
##OWNER=SRD/NIST
Collection (C) 2003 copyright by the U.S. Secretary of Commerce
on behalf of the United States of America. All rights reserved.
##CAS REGISTRY NO=123116-01-8
##MOLFORM=C8H8ClNOS
##$NIST SOURCE=MSDC-IR
##STATE=gas
##XUNITS=1/CM
##YUNITS=ABSORBANCE
##XFACTOR=1.
##YFACTOR=0.001
##DELTAX=1.92898
##FIRSTX=549.8
##LASTX=4000.7
##FIRSTY=4.773
##MAXX=4000.7
##MINX=549.759
##MAXY=0.036233
##MINY=0
##NPOINTS=1790
##XYDATA=(X++(Y..Y))
549.759  4.773 5.153 5.253 4.943 5.433 5.413 5.153 6.373 6.633 6.733
569.049  6.883 6.663 6.233 5.633 5.353 5.183 4.713 3.973 3.803 3.333
588.339  3.283 3.103 2.533 2.663 2.623 2.273 2.243 2.343 2.013 1.683
607.628  1.993 1.843 1.423 1.683 1.673 1.703 2.123 2.643 3.283 3.603
626.918  3.553 3.543 3.653 3.573 3.293 3.153 2.823 2.343 1.903 1.963
646.208  2.153 1.663 1.773 1.873 1.793 2.023 2.153 2.583 2.573 2.333
665.498  2.583 2.893 3.193 3.493 3.923 4.533 5.453 6.233 6.693 6.933
684.787  7.533 8.053 7.843 7.543 6.843 5.653 4.463 3.833 3.293 2.383
704.077  1.743 1.583 1.453 1.3106 1.3656 1.513 1.603 1.803 1.733 1.523
723.367  1.803 1.813 1.763 1.893 1.493 1.753 2.183 1.723 1.553 2.013
742.657  2.333 2.543 3.563 4.533 5.543 6.793 7.883 9.333 10.643 11.133
761.947  10.093 8.673 7.823 6.863 5.783 4.753 4.053 3.543 2.883 2.533
781.236  2.893 2.663 2.473 2.723 2.693 2.993 3.353 3.483 3.563 3.723
800.526  3.783 3.683 3.263 2.753 2.553 2.373 2.213 2.253 2.073 1.683
819.816  1.2574 1.06 0.9827 1.0087 0.8578 0.7362 0.8288 0.7036 0.8032 1.1247
839.106  1.2894 1.513 1.513 0.97 0.7456 0.6767 0.5959 0.7942 1.0115 0.9788
858.395  1.014 0.9546 0.9596 1.2236 0.815 0.6205 0.9986 1.1865 1.0581 0.8564
877.685  0.8918 0.8211 0.7527 0.8168 0.5911 0.6709 1.0156 0.9717 0.8824 0.47156
896.975  0.44025 0.6904 0.6148 0.7506 0.7731 0.757 0.7627 0.5783 0.5981 0.9524
916.265  0.8708 0.8698 0.9577 0.7932 0.8594 0.9986 1.0637 1.0216 1.1503 1.2163
935.555  0.9031 0.6232 0.7746 0.7734 0.838 1.1455 0.9718 0.9373 1.0633 1.0203
954.844  1.0989 1.0976 0.9198 1.0978 1.613 1.743 1.943 1.993 1.783 1.683
974.134  1.503 1.453 1.743 1.743 1.3125 1.3553 1.583 1.533 1.37 1.423
993.424  1.483 1.503 1.483 1.2469 1.3083 1.673 1.623 1.2816 1.3451 1.803
1012.714  1.993 2.363 2.873 3.263 4.103 4.933 5.663 6.823 7.953 8.953
1032.003  9.713 10.343 11.223 11.653 11.253 10.263 9.853 9.613 8.913 8.343
1051.293  8.083 8.713 9.413 9.563 9.763 9.863 9.933 9.923 9.753 9.403
1070.583  8.773 7.983 7.143 5.873 4.843 3.903 3.843 4.733 5.023 5.083
1089.873  4.823 5.613 6.253 6.573 8.083 9.613 11.573 13.563 14.883 15.333
1109.163  15.093 16.343 17.023 16.483 15.843 15.103 14.193 12.923 11.533 10.423
1128.452  10.843 11.073 11.243 12.273 12.853 12.823 12.283 11.813 11.243 10.043
1147.742  8.633 7.873 7.133 6.323 6.313 6.403 6.593 6.873 7.323 7.713
1167.032  8.553 10.233 11.673 12.703 13.543 14.373 14.193 13.693 13.683 13.013
1186.322  11.213 9.083 8.173 7.323 5.973 4.303 3.133 3.123 3.153 3.263
1205.611  3.163 3.083 2.943 2.603 2.343 1.583 1.653 2.423 1.893 1.783
1224.901  2.433 3.323 4.103 3.633 3.493 4.033 3.813 3.173 3.283 3.613
1244.191  3.243 3.193 3.343 3.283 3.413 3.273 3.243 3.603 3.743 4.093
1263.481  4.523 4.723 4.933 4.683 4.663 5.023 5.043 5.133 5.363 5.633
1282.771  5.653 5.323 5.213 5.153 4.943 4.873 4.993 4.983 4.883 4.803
1302.060  4.803 4.853 4.703 4.623 4.683 4.743 4.883 5.093 5.193 5.203
1321.350  5.223 5.253 5.243 5.213 5.053 5.073 5.133 5.083 5.163 5.133
1340.640  5.193 5.473 5.693 5.863 5.993 6.043 6.093 6.133 6.103 5.913
1359.930  5.633 5.473 5.383 5.263 5.143 5.113 5.063 5.183 5.523 5.953
1379.219  6.663 7.563 8.783 10.413 12.193 14.213 16.363 18.233 19.643 20.663
1398.509  21.283 21.193 20.303 18.813 16.763 14.553 12.333 10.233 8.453 6.973
1417.799  5.823 4.863 4.173 3.793 3.433 3.063 2.873 2.923 2.943 2.873
1437.089  2.973 2.963 2.833 2.853 2.793 2.683 2.673 2.543 2.323 2.343
1456.378  2.243 2.053 2.003 1.943 1.843 1.753 1.673 1.563 1.613 1.563
1475.668  1.393 1.3584 1.2917 1.2917 1.2846 1.2287 1.2855 1.2076 1.1409 1.1935
1494.958  1.272 1.211 1.1845 1.2166 1.1692 1.2126 1.2331 1.383 1.503 1.373
1514.248  1.433 1.583 1.663 1.613 1.733 1.843 1.843 1.973 2.093 2.393
1533.538  2.733 3.133 3.763 4.443 5.243 6.313 7.443 8.343 9.053 9.563
1552.827  9.933 9.933 9.563 8.953 8.123 7.503 7.133 7.003 7.323 8.113
1572.117  8.883 9.513 9.973 10.073 9.873 9.313 8.523 7.703 6.833 5.883
1591.407  4.813 3.783 3.083 2.683 2.233 1.963 1.803 1.483 1.3108 1.2691
1610.697  1.2084 1.0789 1.0742 1.0545 1.1285 1.146 1.0701 1.1181 1.0657 1.1262
1629.986  1.1869 1.0864 1.0753 1.064 0.9753 0.8354 0.7713 0.8853 0.9535 0.944
1649.276  0.9505 0.9131 0.8488 0.8446 0.8704 0.8581 0.8934 0.9505 0.9608 0.9802
1668.566  0.9869 1.0155 0.9825 0.9273 1.078 1.0893 1.0282 1.1121 1.0538 1.0129
1687.856  1.1703 1.2709 1.2804 1.3162 1.3724 1.473 1.563 1.713 1.923 2.163
1707.146  2.433 2.643 2.793 3.013 3.293 3.673 3.833 4.073 4.583 5.113
1726.435  5.643 6.193 6.783 7.353 8.143 9.303 10.923 13.043 15.643 18.693
1745.725  22.113 25.793 29.483 32.793 35.183 36.233 35.703 34.363 32.553 30.043
1765.015  26.943 23.463 20.073 17.073 14.433 12.363 10.743 9.413 8.313 7.443
1784.305  6.903 6.413 5.963 5.653 5.333 4.803 4.193 3.693 3.273 2.873
1803.594  2.483 2.153 1.963 1.753 1.583 1.553 1.463 1.2651 1.2197 1.373
1822.884  1.3537 1.134 1.0956 1.0189 1.0034 1.0397 0.8915 0.8367 0.8242 0.8444
1842.174  0.8769 0.6764 0.5598 0.729 0.8109 0.7764 0.7535 0.6835 0.6368 0.709
1861.464  0.7317 0.6916 0.6918 0.6942 0.7157 0.7504 0.7663 0.7735 0.7343 0.5808
1880.754  0.5032 0.5778 0.6875 0.6527 0.6238 0.7197 0.7127 0.7116 0.7751 0.8517
1900.043  0.8928 0.916 0.8874 0.9067 0.9539 0.9393 0.9508 0.9945 0.9257 0.8536
1919.333  0.9478 0.9632 0.9158 0.8405 0.736 0.6888 0.7351 0.8321 0.8738 0.8666
1938.623  0.8155 0.8435 0.8689 0.7161 0.6308 0.7238 0.7728 0.7648 0.7542 0.6843
1957.913  0.6164 0.5432 0.5752 0.6247 0.6114 0.6908 0.6596 0.5422 0.5674 0.6567
1977.202  0.474 0.2987 0.45415 0.6082 0.6037 0.4754 0.4718 0.5498 0.5611 0.562
1996.492  0.5509 0.5821 0.5053 0.42826 0.5309 0.5703 0.483 0.46858 0.5303 0.5207
2015.782  0.44508 0.39938 0.38576 0.46679 0.4864 0.549 0.5801 0.46656 0.41391 0.44149
2035.072  0.4887 0.40774 0.39401 0.46997 0.4799 0.44886 0.46648 0.506 0.36672 0.263
2054.362  0.2989 0.378424 0.46551 0.44453 0.43269 0.4679 0.5067 0.4974 0.46598 0.4992
2073.651  0.5893 0.5808 0.5969 0.6043 0.4812 0.55 0.5905 0.6313 0.7083 0.6295
2092.941  0.666 0.6601 0.5339 0.5339 0.5719 0.5493 0.6091 0.6709 0.5726 0.5387
2112.231  0.44711 0.36 0.41782 0.46616 0.4997 0.49 0.5535 0.533 0.4835 0.5351
2131.521  0.5124 0.5229 0.5533 0.5388 0.5499 0.45763 0.45102 0.5951 0.5846 0.5276
2150.810  0.587 0.6261 0.521 0.4931 0.5611 0.5402 0.47023 0.4735 0.5409 0.6091
2170.100  0.5555 0.5066 0.6278 0.7156 0.6501 0.575 0.4998 0.4166 0.42941 0.42177
2189.390  0.45773 0.555 0.6302 0.6239 0.5489 0.5491 0.5721 0.5104 0.5414 0.5827
2208.680  0.4671 0.47263 0.4976 0.6272 0.6541 0.4986 0.5004 0.5073 0.6111 0.7435
2227.970  0.6166 0.374363 0.43272 0.6091 0.6572 0.5724 0.4993 0.5733 0.5827 0.6318
2247.259  0.6595 0.5389 0.4739 0.5635 0.6534 0.7227 0.7162 0.5373 0.43042 0.43592
2266.549  0.5357 0.5264 0.4925 0.5609 0.5975 0.5388 0.46765 0.5756 0.6497 0.5701
2285.839  0.6056 0.6643 0.6122 0.6008 0.5725 0.44777 0.40205 0.4873 0.5875 0.644
2305.129  0.5253 0.43074 0.5415 0.5195 0.43209 0.497 0.6105 0.5866 0.43993 0.3177
2324.418  0.3381 0.41536 0.47032 0.40129 0.486 0.5269 0.46188 0.5374 0.46133 0.3431
2343.708  0.265 0.4754 0.5827 0.6403 0.7961 0.6824 0.5077 0.38776 0.374072 0.5295
2362.998  0.5636 0.43734 0.5338 0.5806 0.513 0.5583 0.534 0.44403 0.44899 0.5305
2382.288  0.5808 0.5754 0.5317 0.6206 0.6117 0.44179 0.376774 0.41985 0.45574 0.42099
2401.578  0.5434 0.6229 0.5116 0.4745 0.5228 0.4737 0.4954 0.59 0.6035 0.6038
2420.867  0.6602 0.6777 0.6471 0.5683 0.39525 0.47121 0.5656 0.5348 0.5809 0.5924
2440.157  0.45388 0.43921 0.5359 0.5034 0.44834 0.5305 0.6282 0.5121 0.5406 0.6856
2459.447  0.6279 0.5476 0.43382 0.5425 0.602 0.46241 0.5058 0.6092 0.5029 0.3271
2478.737  0.5034 0.6989 0.656 0.601 0.5235 0.41375 0.43428 0.377737 0.4471 0.499
2498.026  0.40038 0.5504 0.5779 0.4958 0.5188 0.43715 0.43379 0.46827 0.5043 0.6073
2517.316  0.542 0.41114 0.39622 0.44245 0.4861 0.493 0.4508 0.39429 0.373234 0.454
2536.606  0.5252 0.38388 0.3551 0.45866 0.4769 0.42409 0.315 0.3625 0.39744 0.3463
2555.896  0.40672 0.37301 0.3169 0.39735 0.41406 0.45439 0.4056 0.3233 0.46661 0.524
2575.186  0.3549 0.3201 0.45554 0.42928 0.273 0.228 0.248 0.36958 0.42958 0.44694
2594.475  0.44996 0.38658 0.46996 0.5337 0.372256 0.215 0.3413 0.2991 0.3213 0.5869
2613.765  0.44754 0.3569 0.41905 0.3606 0.3483 0.38843 0.41807 0.41572 0.42763 0.4487
2633.055  0.5326 0.5917 0.5976 0.4734 0.3217 0.3168 0.47103 0.45399 0.2765 0.42679
2652.345  0.5071 0.40646 0.4946 0.5562 0.5837 0.5075 0.43897 0.40145 0.5077 0.7114
2671.634  0.7077 0.5858 0.5295 0.4821 0.46251 0.5263 0.6087 0.605 0.555 0.6811
2690.924  0.6318 0.5717 0.5843 0.5436 0.5531 0.5079 0.5947 0.5685 0.2958 0.3032
2710.214  0.349 0.3906 0.2959 0.258 0.4106 0.36836 0.3264 0.41325 0.26 0.3006
2729.504  0.5768 0.45557 0.42559 0.43892 0.203 0.199 0.39022 0.5523 0.5635 0.44695
2748.794  0.5759 0.572 0.43172 0.43591 0.40512 0.3452 0.2735 0.3116 0.45951 0.5464
2768.083  0.5035 0.335 0.39067 0.4922 0.4869 0.45781 0.4545 0.4584 0.46309 0.4884
2787.373  0.6111 0.668 0.45607 0.345 0.5293 0.5822 0.5009 0.5606 0.5869 0.5789
2806.663  0.5218 0.39219 0.46025 0.6775 0.6277 0.5825 0.6239 0.6271 0.6167 0.6798
2825.953  0.7827 0.7031 0.5282 0.5101 0.4795 0.41046 0.5665 0.7804 0.887 0.7065
2845.242  0.502 0.6148 0.8236 0.9214 0.8914 0.8732 0.8746 0.9495 0.957 0.877
2864.532  0.9071 1.0525 1.3262 1.463 1.623 1.773 1.793 1.943 2.053 2.113
2883.822  2.133 2.053 2.003 1.963 1.923 1.913 2.003 1.873 1.733 1.803
2903.112  1.703 1.773 1.813 1.693 1.683 1.673 1.683 1.683 1.873 2.123
2922.401  2.353 2.683 3.013 3.473 4.043 4.663 5.153 5.273 5.393 5.593
2941.691  5.443 5.003 4.543 4.013 3.523 3.253 2.973 2.663 2.453 2.553
2960.981  2.793 2.813 2.953 3.373 3.683 3.593 3.623 4.093 4.363 4.293
2980.271  4.103 4.093 3.993 3.613 3.473 3.383 3.083 2.633 2.553 2.713
2999.561  2.573 2.393 2.193 1.733 1.543 1.603 1.463 1.2884 1.2587 1.3694
3018.850  1.403 1.3335 1.3224 1.423 1.453 1.2678 1.3538 1.743 1.813 1.833
3038.140  2.153 2.473 2.853 3.183 3.333 3.283 3.023 2.863 2.803 2.693
3057.430  2.453 2.013 1.733 1.873 1.783 1.513 1.393 1.393 1.523 1.443
3076.720  1.3589 1.2575 1.2454 1.2647 1.0577 0.9393 0.9953 0.9971 0.9672 0.9364
3096.009  0.9732 1.1509 1.2557 1.2097 1.2684 1.3639 1.2181 1.185 1.2606 1.2311
3115.299  1.1605 1.2005 1.1193 1.0256 0.9334 0.6879 0.6552 0.8422 0.9708 0.9394
3134.589  0.8034 0.6613 0.6285 0.5604 0.6388 0.7865 0.8819 0.9505 0.9375 0.7093
3153.879  0.5767 0.6883 0.7055 0.7097 0.7738 0.8809 0.9452 0.8146 0.6353 0.557
3173.169  0.6234 0.7899 0.7258 0.6483 0.6732 0.7365 0.706 0.6082 0.5651 0.6001
3192.458  0.5857 0.5753 0.6738 0.7588 0.8463 0.7296 0.6186 0.7545 0.7962 0.719
3211.748  0.771 0.6769 0.3886 0.40221 0.5095 0.5619 0.5965 0.725 0.7876 0.6834
3231.038  0.7267 0.7758 0.5951 0.5659 0.7025 0.632 0.4802 0.40463 0.612 0.8181
3250.328  0.7329 0.7006 0.8122 0.8374 0.7069 0.6025 0.42055 0.2765 0.5502 0.5997
3269.617  0.5121 0.5569 0.6252 0.6913 0.5972 0.6306 0.6844 0.6873 0.6018 0.5916
3288.907  0.5643 0.5474 0.6245 0.5348 0.5 0.5435 0.596 0.6814 0.6454 0.6816
3308.197  0.5494 0.3563 0.5381 0.4822 0.5201 0.8425 0.8663 0.825 0.8359 0.6507
3327.487  0.7938 0.8522 0.6571 0.6332 0.55 0.5469 0.6888 0.7075 0.512 0.4867
3346.777  0.5209 0.6253 0.478 0.3198 0.47254 0.585 0.5999 0.5938 0.5801 0.38358
3366.066  0.4369 0.527 0.231 0.2814 0.6434 0.6729 0.6635 0.7372 0.7967 0.8411
3385.356  0.8618 0.8208 0.5533 0.36621 0.5721 0.7977 0.9274 0.9039 0.7925 0.9087
3404.646  0.802 0.5725 0.5684 0.6003 0.7018 0.5839 0.4753 0.5385 0.5088 0.46493
3423.936  0.3437 0.482 0.7074 0.8829 0.7247 0.4757 0.6075 0.6655 0.652 0.7718
3443.225  0.9175 0.896 0.7703 0.573 0.7046 0.9027 0.8541 0.6564 0.41377 0.5861
3462.515  0.7782 0.6055 0.4873 0.5629 0.5572 0.7113 0.8369 0.6296 0.8377 1.0451
3481.805  0.8882 0.7746 0.8403 0.9108 0.9394 0.5973 0.266 0.46759 0.6366 0.8834
3501.095  0.9163 0.7692 0.669 0.4733 0.5549 0.7137 0.8267 0.6961 0.5138 0.6479
3520.385  0.6589 0.4946 0.43553 0.7681 0.6806 0.5257 0.7822 0.8428 0.858 0.676
3539.674  0.5426 0.6677 0.7475 0.7854 0.7923 0.8307 1.1772 1.723 1.993 2.503
3558.964  3.463 4.453 5.413 6.543 7.803 8.543 9.113 10.053 11.063 11.613
3578.254  11.523 10.873 9.903 9.193 8.443 7.413 6.363 5.233 4.113 2.883
3597.544  1.803 1.1916 0.9451 0.7388 0.8249 0.9597 0.8736 0.7563 0.6467 0.8709
3616.833  0.9477 0.7016 0.5778 0.6083 0.5665 0.5269 0.6466 0.5195 0.444 0.5836
3636.123  0.45455 0.3355 0.44692 0.5698 0.5015 0.42558 0.5487 0.6234 0.5553 0.5449
3655.413  0.36724 0.3342 0.45679 0.43323 0.38841 0.47058 0.249 0.218 0.4877 0.5916
3674.703  0.5121 0.5357 0.6242 0.45312 0.4159 0.43268 0.261 0.17 0.4332 0.40804
3693.993  0.40869 0.42651 0.3389 0.27 0.244 0.4945 0.6169 0.5267 0.382584 0.208
3713.282  0.40526 0.6618 0.5242 0.236 0.38961 0.7224 0.6425 0.44237 0.5946 0.7575
3732.572  0.5806 0.4935 0.252 0.212 0.3164 0.2771 0.3203 0.376561 0.4783 0.5335
3751.862  0.4195 0.4377 0.4801 0.41876 0.4815 0.39423 0.2919 0.492 0.40899 0.184
3771.152  0.238 0.263 0.39178 0.2927 0 0.272 0.4966 0.2812 0.3369 0.40715
3790.441  0.43936 0.7091 0.6666 0.40832 0.5628 0.6741 0.43975 0.198 0.175 0.508
3809.731  0.585 0.40934 0.25 0.2856 0.3168 0.182 0.2968 0.6099 0.6079 0.5854
3829.021  0.6566 0.5801 0.5156 0.5908 0.7105 0.624 0.5222 0.5434 0.7301 0.7625
3848.311  0.5694 0.5299 0.699 0.6407 0.3572 0.18 0.243 0.497 0.46403 0.37312
3867.601  0.43126 0.5607 0.4744 0.2976 0.3604 0.2862 0.2755 0.2959 0.247 0.132
3886.890  0.159 0.6497 0.9309 0.6032 0.45755 0.218 0.04 0.3527 0.5806 0.5576
3906.180  0.38756 0.41238 0.4993 0.42774 0.264 0.188 0.19 0.21 0.265 0.09
3925.470  0.064 0.374287 0.5398 0.554 0.3233 0.11 0.17 0.41599 0.618 0.3462
3944.760  0.3105 0.6001 0.45247 0.328 0.3454 0.5319 0.7246 0.218 0.007 0.239
3964.049  0.3611 0.40178 0.5314 0.7121 0.5568 0.40543 0.228 0.4255 0.6272 0.37165
3983.339  0.201 0.3482 0.5139 0.4796 0.45573 0.4731 0.6381 0.5872 0.292 0.45005
##END=
