##TITLE=2,6,8-Trimethyl-4-nonanone
##JCAMP-DX=4.24
##DATA TYPE=INFRARED SPECTRUM
##ORIGIN=NIST Mass Spectrometry Data Center
##OWNER=NIST Standard Reference Data Program
Collection (C) 2003 copyright by the U.S. Secretary of Commerce
on behalf of the United States of America. All rights reserved.
##CAS REGISTRY NO=123-18-2
##MOLFORM=C12H24O
##$NIST SOURCE=MSDC-IR
##SPECTROMETER/DATA SYSTEM=HP-GC/MS/IRD
##STATE=gas
##XUNITS=1/CM
##YUNITS=ABSORBANCE
##XFACTOR=1.0
##YFACTOR=0.000004900
##DELTAX=4.0
##FIRSTX=550.0
##LASTX=3846.0
##FIRSTY=0.000603
##MAXX=3846
##MINX=550
##MAXY=0.049
##MINY=0
##NPOINTS=825
##XYDATA=(X++(Y..Y))
550.0 123 76 56 51 25 32 27 9 10 14
590.0 17 27 39 51 63 68 63 75 90 92
630.0 104 106 105 101 100 104 110 123 130 139
670.0 151 149 138 132 115 101 102 94 84 76
710.0 66 55 40 37 38 36 34 34 42 53
750.0 49 39 40 44 49 54 60 62 62 64
790.0 75 90 92 98 105 104 99 94 91 84
830.0 89 100 98 91 96 97 92 96 101 108
870.0 114 113 120 129 135 144 154 150 157 167
910.0 172 186 217 254 267 261 241 224 221 229
950.0 244 253 259 265 270 266 267 261 236 210
990.0 190 180 185 202 238 294 370 459 539 594
1030.0 631 658 681 697 709 714 708 679 640 594
1070.0 538 493 452 404 358 333 315 297 296 308
1110.0 326 354 400 455 512 589 690 792 895 988
1150.0 1069 1135 1200 1226 1191 1072 880 684 533 433
1190.0 368 335 320 324 338 347 357 363 368 383
1230.0 389 389 394 397 389 383 374 366 370 392
1270.0 435 501 583 667 735 782 817 837 836 810
1310.0 760 716 691 698 743 818 909 1010 1126 1270
1350.0 1454 1646 1810 1898 1883 1783 1634 1492 1398 1331
1390.0 1231 1070 892 764 711 697 688 664 629 607
1430.0 605 613 631 666 736 842 975 1118 1238 1315
1470.0 1310 1185 975 750 565 437 342 279 233 195
1510.0 166 148 133 118 105 101 96 92 90 87
1550.0 84 81 80 80 72 71 77 70 69 70
1590.0 72 79 80 79 85 86 88 93 97 100
1630.0 100 105 109 113 124 135 146 158 174 196
1670.0 228 266 310 364 444 545 694 917 1243 1692
1710.0 2263 2885 3392 3557 3267 2632 1896 1278 854 588
1750.0 427 319 248 198 165 143 125 111 100 91
1790.0 81 75 69 62 58 55 52 50 46 43
1830.0 41 38 39 42 40 36 35 33 29 28
1870.0 28 26 21 18 17 23 25 19 18 21
1910.0 21 19 16 15 13 14 14 9 9 13
1950.0 14 15 15 13 10 7 8 12 12 8
1990.0 4 5 6 7 6 7 4 6 7 11
2030.0 12 9 7 7 7 9 8 9 8 6
2070.0 6 5 6 7 7 4 2 0 2 7
2110.0 8 8 8 10 12 13 12 10 7 7
2150.0 7 7 5 6 11 13 17 16 14 15
2190.0 16 14 15 17 16 17 18 16 15 12
2230.0 16 14 12 10 8 8 13 12 10 11
2270.0 11 13 13 11 12 15 19 18 17 16
2310.0 18 18 17 16 13 16 18 16 19 17
2350.0 16 17 17 18 20 22 23 19 20 27
2390.0 29 24 25 29 29 30 30 27 23 24
2430.0 28 23 24 31 30 29 31 33 32 28
2470.0 27 30 32 29 30 36 38 40 39 37
2510.0 36 35 37 39 38 32 35 36 36 39
2550.0 46 48 49 50 50 52 55 56 59 64
2590.0 70 74 75 73 73 76 80 79 80 83
2630.0 86 89 86 84 88 89 83 83 88 92
2670.0 93 92 93 99 104 104 111 119 120 126
2710.0 138 150 162 178 195 210 218 220 214 209
2750.0 203 201 201 197 204 213 218 227 241 253
2790.0 270 288 312 332 356 389 424 462 504 554
2830.0 625 712 826 966 1109 1228 1324 1435 1614 1925
2870.0 2410 3010 3559 3889 3968 3928 3924 4013 4179 4350
2910.0 4457 4475 4452 4473 4599 4818 5081 5318 5487 5673
2950.0 6111 7028 8408 9689 10000 9004 7147 5240 3772 2732
2990.0 1992 1470 1120 873 700 579 488 418 369 334
3030.0 303 279 258 244 236 224 212 208 210 205
3070.0 201 201 203 203 198 198 191 183 176 169
3110.0 168 169 168 165 168 166 159 160 162 161
3150.0 156 150 151 153 153 154 158 158 152 150
3190.0 146 137 132 127 117 106 99 95 88 76
3230.0 68 66 63 62 60 58 60 59 53 54
3270.0 50 45 45 47 57 62 53 49 49 50
3310.0 52 50 50 55 56 60 56 55 54 54
3350.0 57 58 64 67 68 63 55 56 60 60
3390.0 62 70 74 70 68 76 84 93 97 97
3430.0 96 82 68 64 56 45 43 42 32 29
3470.0 32 30 24 20 19 22 17 12 18 21
3510.0 24 28 21 14 18 28 27 21 19 15
3550.0 15 22 21 17 21 28 21 19 22 25
3590.0 26 21 19 21 16 10 17 20 16 11
3630.0 11 17 19 15 19 17 13 23 22 22
3670.0 27 28 25 19 10 11 25 25 25 23
3710.0 23 30 30 30 31 31 31 34 35 33
3750.0 35 34 33 35 41 38 34 30 34 46
3790.0 46 42 42 42 42 48 48 49 52 52
3830.0 45 40 48 48 42
##END=
