##TITLE=2,6,8-Trimethyl-4-nonanol
##JCAMP-DX=4.24
##DATA TYPE=INFRARED SPECTRUM
##ORIGIN=NIST Mass Spectrometry Data Center
##OWNER=NIST Standard Reference Data Program
Collection (C) 2003 copyright by the U.S. Secretary of Commerce
on behalf of the United States of America. All rights reserved.
##CAS REGISTRY NO=123-17-1
##MOLFORM=C12H26O
##$NIST SOURCE=MSDC-IR
##SPECTROMETER/DATA SYSTEM=HP-GC/MS/IRD
##STATE=gas
##XUNITS=1/CM
##YUNITS=ABSORBANCE
##XFACTOR=1.0
##YFACTOR=0.000004100
##DELTAX=4.0
##FIRSTX=550.0
##LASTX=3846.0
##FIRSTY=0.000172
##MAXX=3846
##MINX=550
##MAXY=0.041
##MINY=0
##NPOINTS=825
##XYDATA=(X++(Y..Y))
550.0 42 106 150 125 108 87 86 119 130 105
590.0 98 93 87 100 92 70 71 65 67 83
630.0 80 64 58 63 55 36 37 58 56 25
670.0 4 15 21 21 42 57 71 59 41 39
710.0 46 45 54 61 51 54 58 56 47 39
750.0 34 37 53 59 55 49 45 62 72 77
790.0 91 102 105 108 122 121 134 171 200 214
830.0 235 254 262 257 243 232 229 221 204 200
870.0 196 182 170 161 160 144 135 140 135 151
910.0 173 191 232 264 279 288 287 301 340 375
950.0 396 408 408 414 428 444 451 445 426 405
990.0 404 437 485 542 612 654 676 683 680 661
1030.0 649 654 637 633 648 637 611 595 570 531
1070.0 499 465 435 437 444 450 468 491 509 519
1110.0 525 541 550 560 595 645 705 745 776 787
1150.0 772 762 741 729 713 653 569 486 431 407
1190.0 397 400 410 419 427 441 450 447 442 437
1230.0 433 443 461 462 459 450 445 452 451 450
1270.0 456 457 443 433 429 413 392 380 368 357
1310.0 354 363 375 393 415 438 456 483 527 576
1350.0 648 744 858 1009 1177 1307 1400 1439 1450 1416
1390.0 1289 1081 831 640 518 434 388 362 357 375
1430.0 406 452 511 586 666 754 874 1012 1134 1209
1470.0 1194 1062 855 645 476 353 275 222 184 153
1510.0 132 116 103 94 80 74 69 61 57 61
1550.0 66 58 48 49 50 52 49 45 50 50
1590.0 48 48 46 46 44 46 47 42 46 45
1630.0 39 38 39 40 34 28 33 37 35 31
1670.0 35 35 30 26 23 27 27 28 30 31
1710.0 29 24 26 27 24 21 21 22 21 21
1750.0 19 16 17 18 24 20 20 24 17 18
1790.0 23 17 15 18 14 6 8 13 17 19
1830.0 16 14 15 16 15 16 17 16 16 16
1870.0 14 18 19 17 13 13 19 17 12 13
1910.0 9 1 6 11 9 6 6 6 5 8
1950.0 8 3 3 9 11 8 11 16 16 6
1990.0 4 14 13 7 5 3 8 9 7 9
2030.0 10 15 13 7 4 4 2 3 3 3
2070.0 4 3 3 3 2 6 8 7 6 7
2110.0 7 6 2 0 4 10 14 11 5 9
2150.0 12 12 13 16 18 14 10 12 16 14
2190.0 17 15 15 16 11 13 15 13 17 17
2230.0 17 19 13 8 6 5 11 11 8 7
2270.0 7 12 20 21 16 12 11 11 9 9
2310.0 16 20 11 7 11 13 13 13 15 15
2350.0 16 14 12 13 15 17 24 26 29 31
2390.0 32 32 29 25 24 28 29 30 35 36
2430.0 28 22 23 24 26 25 19 21 26 25
2470.0 26 29 28 25 24 25 25 33 36 31
2510.0 32 28 23 24 28 32 32 33 33 32
2550.0 34 41 43 47 55 54 56 61 68 71
2590.0 72 75 77 79 82 83 81 86 86 82
2630.0 87 90 85 78 74 77 86 90 94 101
2670.0 98 102 109 108 111 111 113 113 116 129
2710.0 135 140 155 181 196 205 211 208 203 192
2750.0 185 191 186 188 199 213 222 217 222 229
2790.0 247 271 285 311 343 373 421 468 523 600
2830.0 687 803 959 1139 1309 1439 1517 1591 1731 2012
2870.0 2461 2996 3433 3636 3637 3591 3666 3920 4337 4822
2910.0 5256 5581 5812 5975 6075 6100 6030 5851 5619 5534
2950.0 5900 6931 8476 9837 10000 8592 6292 4157 2753 1945
2990.0 1457 1128 889 723 594 495 423 358 312 291
3030.0 268 246 224 202 202 197 177 172 176 173
3070.0 169 167 169 165 165 166 158 151 146 147
3110.0 136 125 127 125 117 118 124 118 112 115
3150.0 121 125 123 117 118 125 118 118 128 125
3190.0 110 101 89 80 67 71 75 64 52 48
3230.0 46 39 39 42 38 32 37 37 30 24
3270.0 24 36 41 29 23 22 20 31 35 25
3310.0 22 19 23 28 38 30 24 23 33 35
3350.0 31 34 33 46 49 40 34 33 42 32
3390.0 27 36 38 43 35 31 31 40 40 37
3430.0 40 31 29 38 46 51 38 32 35 30
3470.0 25 22 21 15 22 17 10 16 17 23
3510.0 13 8 17 17 17 11 12 18 15 12
3550.0 17 16 3 8 10 12 15 9 19 21
3590.0 10 16 18 18 25 41 48 64 101 118
3630.0 122 136 169 221 285 311 306 270 215 157
3670.0 113 88 70 61 55 39 23 18 19 17
3710.0 25 40 32 26 30 34 37 42 34 24
3750.0 22 20 19 23 31 30 25 22 24 27
3790.0 23 22 25 26 37 51 42 31 34 37
3830.0 34 39 40 33 40
##END=
