##TITLE=2-Methylpentanal
##JCAMP-DX=4.24
##DATA TYPE=INFRARED SPECTRUM
##ORIGIN=NIST Mass Spectrometry Data Center
##OWNER=NIST Standard Reference Data Program
Collection (C) 2003 copyright by the U.S. Secretary of Commerce
on behalf of the United States of America. All rights reserved.
##CAS REGISTRY NO=123-15-9
##MOLFORM=C6H12O
##$NIST SOURCE=MSDC-IR
##SPECTROMETER/DATA SYSTEM=HP-GC/MS/IRD
##STATE=gas
##XUNITS=1/CM
##YUNITS=ABSORBANCE
##XFACTOR=1.0
##YFACTOR=0.000001400
##DELTAX=4.0
##FIRSTX=550.0
##LASTX=3846.0
##FIRSTY=0.000035
##MAXX=3846
##MINX=550
##MAXY=0.014
##MINY=0
##NPOINTS=825
##XYDATA=(X++(Y..Y))
550.0 25 51 78 151 157 65 17 36 32 1
590.0 17 32 42 46 76 105 144 190 123 84
630.0 118 108 135 158 152 148 169 183 151 111
670.0 111 135 115 81 57 76 66 64 124 120
710.0 121 133 140 182 258 326 344 340 338 357
750.0 370 361 336 285 237 241 233 236 279 291
790.0 318 361 364 375 379 368 382 439 447 379
830.0 368 412 416 377 362 362 370 391 404 436
870.0 496 547 586 588 604 644 651 650 666 717
910.0 807 910 1028 1147 1244 1309 1279 1187 1088 958
950.0 821 686 568 470 379 310 274 260 235 203
990.0 198 218 217 221 239 230 240 257 260 241
1030.0 239 273 265 284 304 267 234 232 219 198
1070.0 199 205 188 188 218 235 236 248 282 305
1110.0 302 273 293 330 355 358 365 373 338 347
1150.0 364 351 326 274 255 228 198 192 173 152
1190.0 130 107 99 96 97 108 123 130 126 124
1230.0 132 146 144 123 138 146 157 174 170 175
1270.0 182 173 168 179 181 175 193 216 221 234
1310.0 250 259 263 278 296 306 320 338 359 360
1350.0 377 406 412 454 534 636 746 851 943 996
1390.0 983 937 859 746 626 536 487 452 436 459
1430.0 524 621 753 941 1150 1347 1519 1658 1716 1681
1470.0 1577 1405 1189 966 758 581 443 347 273 225
1510.0 196 171 155 136 131 131 133 118 109 120
1550.0 106 88 85 84 99 86 69 73 67 74
1590.0 97 113 111 104 109 118 118 132 145 147
1630.0 160 180 197 217 235 257 289 329 387 433
1670.0 496 569 643 726 825 935 1069 1221 1423 1726
1710.0 2171 2787 3665 4861 6284 7758 8978 9723 10000 9816
1750.0 8966 7462 5754 4280 3192 2420 1892 1525 1269 1087
1790.0 945 831 744 654 559 494 433 377 326 291
1830.0 262 221 187 171 155 139 132 124 107 90
1870.0 81 71 65 73 64 49 41 33 34 26
1910.0 25 28 35 35 30 35 41 33 25 31
1950.0 31 42 44 28 26 34 37 30 31 38
1990.0 34 26 24 25 24 17 30 41 29 20
2030.0 23 30 31 26 22 14 10 15 21 17
2070.0 22 32 31 26 18 31 38 26 21 29
2110.0 29 12 11 19 19 18 16 18 16 21
2150.0 21 12 14 6 4 10 22 33 31 28
2190.0 22 20 21 25 26 27 28 23 18 15
2230.0 16 11 12 19 7 5 21 19 4 0
2270.0 11 20 9 5 10 14 18 3 12 27
2310.0 22 27 23 25 30 17 12 22 25 20
2350.0 21 20 19 25 20 13 27 36 28 17
2390.0 13 22 20 30 51 46 39 44 40 31
2430.0 30 27 17 18 40 47 28 23 30 29
2470.0 28 26 28 28 39 45 40 42 45 44
2510.0 40 46 47 44 53 54 54 63 61 62
2550.0 75 80 76 100 106 105 122 139 146 146
2590.0 159 181 208 239 252 279 338 372 399 447
2630.0 486 537 603 653 707 779 883 995 1119 1305
2670.0 1520 1745 2044 2382 2679 2945 3155 3282 3313 3219
2710.0 3042 2780 2502 2243 2032 1867 1727 1636 1587 1542
2750.0 1507 1506 1474 1434 1445 1474 1519 1571 1639 1757
2790.0 1915 2049 2140 2180 2177 2132 2024 1863 1711 1619
2830.0 1597 1586 1618 1758 1958 2182 2465 2786 3129 3503
2870.0 3905 4323 4626 4709 4693 4637 4517 4340 4236 4295
2910.0 4516 4849 5259 5784 6329 6820 7228 7430 7441 7398
2950.0 7421 7562 7821 8269 8806 9071 8877 8214 7189 5899
2990.0 4587 3429 2506 1846 1391 1104 928 818 750 677
3030.0 615 584 538 494 469 433 393 382 342 318
3070.0 331 323 299 276 280 288 290 255 232 250
3110.0 260 263 240 192 189 199 190 206 202 174
3150.0 154 171 184 164 144 139 154 147 136 126
3190.0 124 129 122 90 109 117 73 57 61 62
3230.0 51 52 66 79 85 65 56 61 49 56
3270.0 75 65 45 49 64 63 72 84 79 87
3310.0 73 37 31 59 68 44 50 52 44 56
3350.0 67 58 18 1 18 28 30 42 80 78
3390.0 48 52 73 86 107 100 98 129 112 93
3430.0 123 146 186 201 198 213 243 264 234 212
3470.0 224 195 151 113 92 124 144 121 100 84
3510.0 96 94 71 78 93 91 82 59 30 31
3550.0 57 60 45 39 33 25 23 43 48 51
3590.0 45 34 44 70 68 18 9 34 56 42
3630.0 28 44 48 59 46 34 32 42 45 33
3670.0 15 18 58 68 62 52 43 41 59 55
3710.0 35 49 62 66 63 44 44 40 48 48
3750.0 52 62 74 80 94 98 59 64 80 61
3790.0 57 83 84 67 57 53 79 88 64 49
3830.0 38 35 32 67 113
##END=
