##TITLE=PROPIONIC ACID, 3,3'-THIODI-, DIDODECYL ESTER
##JCAMP-DX=4.24
##DATA TYPE=INFRARED SPECTRUM
##CLASS=COBLENTZ
##ORIGIN=TENNESSEE EASTMAN COMPANY, RESEARCH LABORATORIES
##OWNER=COBLENTZ SOCIETY
Collection (C) 2003 copyright by the U.S. Secretary of Commerce
on behalf of the United States of America. All rights reserved.
##DATE=1960
##CAS REGISTRY NO=123-28-4
##MOLFORM=C30H58O4S
##SOURCE REFERENCE=COBLENTZ NO. 934
##$NIST SOURCE=COBLENTZ
##$NIST IMAGE=cob934
##STATE=SOLID (PELLET)
##SAMPLING PROCEDURE=TRANSMISSION
##RESOLUTION=4
##DATA PROCESSING=DIGITIZED BY NIST FROM HARD COPY
##XUNITS=MICROMETERS
##YUNITS=TRANSMITTANCE
##XFACTOR=1.000000
##YFACTOR=1
##DELTAX=000.006656
##FIRSTX=2.007
##LASTX=15.9917
##FIRSTY=0.586
##MAXX=15.9917
##MINX=2.007
##MAXY=1.003
##MINY=0.048
##NPOINTS=2102
##XYDATA=(X++(Y..Y))
2.007000 0.5860 0.5860 0.5880 0.5890 0.5890
2.040298 0.5960 0.5980 0.5980 0.5990 0.5990
2.073000 0.6010 0.6040 0.6060 0.6070 0.6070
2.106298 0.6090 0.6090 0.6110 0.6110 0.6120
2.140000 0.6140 0.6160 0.6210 0.6240 0.6260
2.173298 0.6290 0.6310 0.6310 0.6320 0.6320
2.206000 0.6320 0.6340 0.6360 0.6360 0.6360
2.239298 0.6340 0.6340 0.6340 0.6340 0.6340
2.273000 0.6320 0.6310 0.6290 0.6290 0.6290
2.306298 0.6310 0.6310 0.6310 0.6320 0.6340
2.339000 0.6340 0.6360 0.6370 0.6370 0.6370
2.372298 0.6370 0.6370 0.6390 0.6420 0.6470
2.406000 0.6490 0.6490 0.6510 0.6510 0.6520
2.439298 0.6560 0.6590 0.6620 0.6620 0.6640
2.473000 0.6660 0.6670 0.6690 0.6710 0.6710
2.506298 0.6740 0.6760 0.6770 0.6790 0.6820
2.539000 0.6840 0.6860 0.6870 0.6870 0.6890
2.572298 0.6890 0.6910 0.6920 0.6920 0.6920
2.606000 0.6960 0.6960 0.6970 0.6970 0.6970
2.639298 0.6990 0.6990 0.7020 0.7040 0.7050
2.672000 0.7070 0.7070 0.7070 0.7090 0.7090
2.705298 0.7090 0.7090 0.7090 0.7090 0.7090
2.739000 0.7090 0.7090 0.7090 0.7090 0.7090
2.772298 0.7090 0.7070 0.7070 0.7070 0.7070
2.805000 0.7050 0.7020 0.7000 0.7000 0.7000
2.838298 0.6990 0.6990 0.6990 0.6970 0.6960
2.872000 0.6920 0.6870 0.6840 0.6810 0.6790
2.905298 0.6770 0.6770 0.6770 0.6790 0.6820
2.939000 0.6890 0.6910 0.6940 0.6990 0.7000
2.972298 0.7040 0.7050 0.7090 0.7100 0.7140
3.005000 0.7170 0.7190 0.7220 0.7240 0.7270
3.038298 0.7300 0.7340 0.7350 0.7350 0.7370
3.072000 0.7390 0.7390 0.7420 0.7440 0.7440
3.105298 0.7440 0.7470 0.7470 0.7490 0.7490
3.138000 0.7490 0.7500 0.7500 0.7500 0.7520
3.171298 0.7520 0.7550 0.7570 0.7570 0.7590
3.205000 0.7590 0.7590 0.7590 0.7590 0.7590
3.238298 0.7590 0.7570 0.7520 0.7520 0.7500
3.271000 0.7470 0.7420 0.7370 0.7300 0.7220
3.304298 0.7120 0.6990 0.6820 0.6620 0.6370
3.338000 0.5980 0.5390 0.3920 0.3120 0.2350
3.371298 0.1690 0.1140 0.0760 0.0590 0.0490
3.405000 0.0480 0.0490 0.0510 0.0540 0.0660
3.438298 0.0880 0.1190 0.1540 0.1820 0.1860
3.471000 0.1860 0.1660 0.1010 0.0980 0.0980
3.504298 0.1190 0.2720 0.4230 0.4710 0.5190
3.538000 0.6060 0.6510 0.6760 0.6910 0.7050
3.571298 0.7190 0.7300 0.7400 0.7500 0.7590
3.604000 0.7650 0.7720 0.7750 0.7770 0.7820
3.637298 0.7820 0.7840 0.7840 0.7870 0.7870
3.671000 0.7890 0.7900 0.7900 0.7920 0.7940
3.704298 0.7940 0.7950 0.7950 0.7950 0.7950
3.737000 0.7950 0.7970 0.7970 0.7990 0.7990
3.770298 0.7990 0.8020 0.8030 0.8050 0.8070
3.804000 0.8080 0.8100 0.8150 0.8170 0.8170
3.837298 0.8180 0.8200 0.8220 0.8230 0.8250
3.870000 0.8280 0.8300 0.8320 0.8330 0.8330
3.903298 0.8330 0.8350 0.8400 0.8470 0.8470
3.937000 0.8480 0.8480 0.8480 0.8500 0.8500
3.970298 0.8500 0.8500 0.8520 0.8530 0.8550
4.004000 0.8580 0.8570 0.8570 0.8570 0.8570
4.037298 0.8570 0.8580 0.8580 0.8580 0.8580
4.070000 0.8620 0.8630 0.8650 0.8670 0.8670
4.103298 0.8670 0.8680 0.8670 0.8670 0.8670
4.137000 0.8670 0.8670 0.8670 0.8670 0.8670
4.170298 0.8670 0.8670 0.8670 0.8670 0.8670
4.203000 0.8670 0.8680 0.8680 0.8700 0.8720
4.236298 0.8730 0.8730 0.8730 0.8720 0.8700
4.270000 0.8680 0.8650 0.8650 0.8630 0.8630
4.303298 0.8630 0.8630 0.8620 0.8600 0.8600
4.336000 0.8620 0.8630 0.8670 0.8700 0.8730
4.369298 0.8770 0.8800 0.8820 0.8820 0.8820
4.403000 0.8820 0.8820 0.8830 0.8830 0.8830
4.436298 0.8850 0.8850 0.8850 0.8870 0.8870
4.470000 0.8880 0.8880 0.8880 0.8880 0.8900
4.503298 0.8900 0.8900 0.8900 0.8900 0.8920
4.536000 0.8900 0.8920 0.8920 0.8920 0.8930
4.569298 0.8930 0.8930 0.8950 0.8950 0.8950
4.603000 0.8950 0.8930 0.8930 0.8930 0.8930
4.636298 0.8930 0.8950 0.8950 0.8950 0.8950
4.669000 0.8950 0.8950 0.8950 0.8970 0.8970
4.702298 0.8970 0.8970 0.8970 0.8970 0.8980
4.736000 0.8980 0.8980 0.8980 0.8980 0.8980
4.769298 0.8980 0.8980 0.8980 0.8980 0.8980
4.802000 0.8980 0.8980 0.8980 0.8980 0.8980
4.835298 0.8980 0.8980 0.8980 0.8980 0.8980
4.869000 0.8980 0.9000 0.9000 0.9000 0.8980
4.902298 0.8980 0.8980 0.8980 0.8980 0.8980
4.935000 0.8980 0.8980 0.8980 0.8980 0.8980
4.968298 0.8980 0.8980 0.9010 0.9050 0.9060
5.002000 0.9080 0.9110 0.9130 0.9130 0.9110
5.035298 0.9100 0.9080 0.9080 0.9060 0.9060
5.069000 0.9060 0.9060 0.9060 0.9060 0.9060
5.102298 0.9080 0.9080 0.9080 0.9080 0.9080
5.135000 0.9100 0.9080 0.9080 0.9080 0.9080
5.168298 0.9080 0.9080 0.9100 0.9100 0.9100
5.202000 0.9100 0.9100 0.9100 0.9100 0.9100
5.235298 0.9100 0.9100 0.9100 0.9100 0.9100
5.268000 0.9100 0.9100 0.9080 0.9080 0.9080
5.301298 0.9080 0.9080 0.9080 0.9080 0.9080
5.335000 0.9080 0.9080 0.9080 0.9080 0.9080
5.368298 0.9080 0.9080 0.9080 0.9080 0.9080
5.401000 0.9080 0.9080 0.9080 0.9080 0.9080
5.434298 0.9060 0.9060 0.9050 0.9050 0.9030
5.468000 0.9000 0.9000 0.8900 0.8870 0.8870
5.501298 0.8870 0.8870 0.8850 0.8820 0.8780
5.535000 0.8750 0.8720 0.8700 0.8630 0.8550
5.568298 0.8520 0.8470 0.8400 0.8330 0.8280
5.601000 0.8200 0.8130 0.8030 0.7990 0.7890
5.634298 0.7790 0.7620 0.7440 0.7200 0.6910
5.668000 0.6560 0.6160 0.5680 0.5130 0.3880
5.701298 0.3100 0.2550 0.1890 0.1290 0.0530
5.734000 0.0510 0.0510 0.0530 0.0530 0.0640
5.767298 0.0830 0.1020 0.1240 0.1510 0.1840
5.801000 0.2290 0.2850 0.3550 0.4430 0.4960
5.834298 0.5490 0.5960 0.6210 0.6340 0.6420
5.867000 0.6570 0.6660 0.6740 0.6820 0.6910
5.900298 0.7000 0.7120 0.7270 0.7400 0.7520
5.934000 0.7620 0.7720 0.7820 0.7920 0.7990
5.967298 0.8050 0.8120 0.8170 0.8180 0.8200
6.001000 0.8250 0.8270 0.8330 0.8370 0.8400
6.034298 0.8450 0.8480 0.8500 0.8500 0.8500
6.067000 0.8480 0.8480 0.8450 0.8430 0.8430
6.100298 0.8480 0.8480 0.8500 0.8520 0.8520
6.134000 0.8520 0.8520 0.8530 0.8550 0.8580
6.167298 0.8580 0.8580 0.8580 0.8580 0.8600
6.200000 0.8620 0.8650 0.8680 0.8730 0.8750
6.233298 0.8770 0.8780 0.8800 0.8820 0.8820
6.267000 0.8830 0.8850 0.8870 0.8870 0.8880
6.300298 0.8900 0.8920 0.8920 0.8920 0.8920
6.333000 0.8920 0.8920 0.8920 0.8900 0.8900
6.366298 0.8900 0.8900 0.8920 0.8920 0.8930
6.400000 0.8930 0.8900 0.8870 0.8870 0.8850
6.433298 0.8870 0.8870 0.8880 0.8880 0.8870
6.466000 0.8870 0.8850 0.8820 0.8830 0.8830
6.499298 0.8830 0.8830 0.8830 0.8830 0.8830
6.533000 0.8820 0.8820 0.8800 0.8780 0.8750
6.566298 0.8720 0.8720 0.8750 0.8750 0.8750
6.600000 0.8750 0.8730 0.8720 0.8700 0.8680
6.633298 0.8650 0.8650 0.8650 0.8630 0.8620
6.666000 0.8550 0.8520 0.8480 0.8420 0.8320
6.699298 0.8220 0.8080 0.7920 0.7750 0.7550
6.733000 0.7320 0.7020 0.6770 0.6490 0.6060
6.766298 0.5380 0.3280 0.3050 0.2790 0.2790
6.799000 0.2850 0.2940 0.3020 0.3120 0.3250
6.832298 0.3330 0.3550 0.3720 0.3880 0.4000
6.866000 0.4550 0.4700 0.4900 0.4960 0.5010
6.899298 0.5130 0.5210 0.5280 0.5290 0.5310
6.932000 0.5330 0.5330 0.5330 0.5340 0.5330
6.965298 0.5330 0.5330 0.5330 0.5360 0.5380
6.999000 0.5410 0.5430 0.5440 0.5460 0.5490
7.032298 0.5490 0.5540 0.5560 0.5640 0.5790
7.066000 0.5980 0.6170 0.6370 0.6560 0.6670
7.099298 0.6760 0.6890 0.6990 0.6990 0.6910
7.132000 0.6770 0.6670 0.6420 0.6210 0.5990
7.165298 0.5790 0.5640 0.5560 0.5510 0.5490
7.199000 0.5490 0.5490 0.5490 0.5680 0.5830
7.232298 0.5830 0.5780 0.5780 0.5780 0.5780
7.265000 0.5780 0.5810 0.5840 0.5860 0.5860
7.298298 0.5810 0.5730 0.5610 0.5490 0.5340
7.332000 0.5160 0.4750 0.4480 0.4160 0.3970
7.365298 0.3800 0.3630 0.3470 0.3350 0.3220
7.398000 0.3120 0.3000 0.2940 0.2920 0.2950
7.431298 0.2970 0.3030 0.3120 0.3280 0.3520
7.465000 0.3800 0.4060 0.4310 0.4530 0.4750
7.498298 0.4930 0.5030 0.5130 0.5290 0.5460
7.531000 0.5690 0.5840 0.5960 0.6020 0.6120
7.564298 0.6220 0.6340 0.6460 0.6490 0.6510
7.598000 0.6570 0.6590 0.6590 0.6570 0.6570
7.631298 0.6490 0.6410 0.6340 0.6260 0.6160
7.665000 0.6010 0.5840 0.5740 0.5660 0.5580
7.698298 0.5530 0.5490 0.5480 0.5480 0.5460
7.731000 0.5430 0.5390 0.5380 0.5330 0.5280
7.764298 0.5190 0.5130 0.5090 0.5080 0.5060
7.798000 0.5040 0.5040 0.5040 0.5080 0.5130
7.831298 0.5180 0.5210 0.5260 0.5290 0.5310
7.864000 0.5310 0.5310 0.5310 0.5290 0.5210
7.897298 0.5140 0.5060 0.4880 0.4750 0.4580
7.931000 0.4350 0.4060 0.3700 0.3500 0.3320
7.964298 0.3150 0.2990 0.2820 0.2650 0.2490
7.997000 0.2290 0.2050 0.1810 0.1720 0.1660
8.030298 0.1570 0.1520 0.1520 0.1520 0.1540
8.064000 0.1540 0.1570 0.1670 0.1820 0.1960
8.097298 0.2120 0.2240 0.2340 0.2420 0.2520
8.131000 0.2640 0.2690 0.2700 0.2720 0.2750
8.164298 0.2790 0.2790 0.2790 0.2790 0.2770
8.197000 0.2790 0.2790 0.2800 0.2800 0.2800
8.230298 0.2800 0.2800 0.2820 0.2800 0.2800
8.264000 0.2800 0.2790 0.2790 0.2740 0.2690
8.297298 0.2650 0.2650 0.2640 0.2620 0.2620
8.330000 0.2620 0.2600 0.2590 0.2550 0.2540
8.363298 0.2490 0.2440 0.2400 0.2390 0.2340
8.397000 0.2290 0.2290 0.2270 0.2240 0.2170
8.430298 0.2120 0.2040 0.2000 0.1960 0.1870
8.463000 0.1790 0.1740 0.1690 0.1620 0.1570
8.496298 0.1520 0.1510 0.1490 0.1490 0.1490
8.530000 0.1490 0.1490 0.1490 0.1490 0.1510
8.563298 0.1540 0.1570 0.1640 0.1690 0.1770
8.597000 0.1860 0.1940 0.1960 0.2000 0.2100
8.630298 0.2140 0.2170 0.2220 0.2250 0.2270
8.663000 0.2290 0.2340 0.2370 0.2400 0.2440
8.696298 0.2470 0.2490 0.2520 0.2550 0.2620
8.730000 0.2640 0.2670 0.2690 0.2700 0.2750
8.763298 0.2800 0.2840 0.2900 0.2970 0.3050
8.796000 0.3170 0.3300 0.3450 0.3450 0.3600
8.829298 0.3800 0.4000 0.4060 0.4280 0.4500
8.863000 0.4710 0.4950 0.5060 0.5160 0.5390
8.896298 0.5610 0.5830 0.6040 0.6240 0.6420
8.929000 0.6610 0.6790 0.6940 0.7070 0.7200
8.962298 0.7300 0.7370 0.7490 0.7600 0.7640
8.996000 0.7700 0.7740 0.7750 0.7770 0.7770
9.029298 0.7800 0.7820 0.7900 0.7920 0.7940
9.062000 0.7940 0.7950 0.7970 0.7970 0.7970
9.095298 0.7970 0.7970 0.7970 0.7970 0.7970
9.129000 0.7950 0.7950 0.7950 0.7940 0.7920
9.162298 0.7890 0.7850 0.7840 0.7820 0.7800
9.196000 0.7790 0.7750 0.7700 0.7670 0.7620
9.229298 0.7550 0.7500 0.7450 0.7390 0.7320
9.262000 0.7290 0.7240 0.7190 0.7120 0.7090
9.295298 0.7020 0.6970 0.6910 0.6870 0.6820
9.329000 0.6790 0.6760 0.6740 0.6720 0.6670
9.362298 0.6660 0.6620 0.6610 0.6590 0.6590
9.395000 0.6560 0.6560 0.6540 0.6540 0.6540
9.428298 0.6520 0.6520 0.6520 0.6510 0.6520
9.462000 0.6520 0.6510 0.6510 0.6520 0.6520
9.495298 0.6520 0.6540 0.6540 0.6560 0.6560
9.528000 0.6570 0.6610 0.6640 0.6670 0.6690
9.561298 0.6710 0.6760 0.6760 0.6770 0.6790
9.595000 0.6820 0.6840 0.6860 0.6870 0.6890
9.628298 0.6910 0.6910 0.6920 0.6920 0.6960
9.662000 0.6960 0.6960 0.6970 0.6990 0.6970
9.695298 0.6970 0.6990 0.6990 0.7000 0.7000
9.728000 0.7000 0.7000 0.7000 0.7000 0.7000
9.761298 0.7000 0.7000 0.6990 0.6990 0.6970
9.795000 0.6970 0.6960 0.6940 0.6920 0.6920
9.828298 0.6910 0.6890 0.6890 0.6890 0.6870
9.861000 0.6870 0.6840 0.6820 0.6810 0.6790
9.894298 0.6770 0.6770 0.6770 0.6770 0.6770
9.928000 0.6770 0.6770 0.6770 0.6770 0.6770
9.961298 0.6770 0.6790 0.6810 0.6810 0.6860
9.994000 0.6870 0.6890 0.6890 0.6910 0.6920
10.027298 0.6940 0.6940 0.6960 0.6960 0.6970
10.061000 0.6990 0.6990 0.7000 0.7000 0.7020
10.094298 0.7040 0.7040 0.7040 0.7040 0.7050
10.127000 0.7050 0.7070 0.7070 0.7070 0.7070
10.160298 0.7090 0.7070 0.7070 0.7070 0.7070
10.194000 0.7070 0.7090 0.7070 0.7070 0.7050
10.227298 0.7050 0.7050 0.7050 0.7050 0.7050
10.261000 0.7050 0.7050 0.7050 0.7050 0.7040
10.294298 0.7040 0.7040 0.7040 0.7040 0.7040
10.327000 0.7040 0.7050 0.7050 0.7070 0.7090
10.360298 0.7100 0.7120 0.7120 0.7150 0.7170
10.394000 0.7190 0.7220 0.7240 0.7250 0.7300
10.427298 0.7340 0.7370 0.7390 0.7420 0.7440
10.460000 0.7490 0.7500 0.7520 0.7550 0.7600
10.493298 0.7620 0.7620 0.7650 0.7670 0.7720
10.527000 0.7800 0.7800 0.7800 0.7820 0.7820
10.560298 0.7820 0.7840 0.7840 0.7850 0.7850
10.593000 0.7890 0.7900 0.7900 0.7900 0.7900
10.626298 0.7900 0.7900 0.7900 0.7900 0.7900
10.660000 0.7900 0.7900 0.7900 0.7900 0.7900
10.693298 0.7900 0.7900 0.7900 0.7920 0.7900
10.727000 0.7900 0.7920 0.7920 0.7950 0.7990
10.760298 0.8000 0.8020 0.8050 0.8050 0.8080
10.793000 0.8120 0.8230 0.8250 0.8280 0.8300
10.826298 0.8320 0.8330 0.8330 0.8350 0.8380
10.860000 0.8400 0.8470 0.8500 0.8500 0.8520
10.893298 0.8530 0.8550 0.8550 0.8570 0.8580
10.926000 0.8600 0.8600 0.8620 0.8620 0.8630
10.959298 0.8620 0.8630 0.8630 0.8650 0.8650
10.993000 0.8650 0.8650 0.8650 0.8630 0.8650
11.026298 0.8650 0.8650 0.8650 0.8630 0.8630
11.059000 0.8650 0.8650 0.8650 0.8650 0.8650
11.092298 0.8650 0.8650 0.8650 0.8650 0.8650
11.126000 0.8650 0.8630 0.8630 0.8650 0.8650
11.159298 0.8650 0.8650 0.8650 0.8650 0.8650
11.193000 0.8630 0.8630 0.8650 0.8650 0.8650
11.226298 0.8650 0.8650 0.8650 0.8670 0.8670
11.259000 0.8680 0.8680 0.8680 0.8700 0.8700
11.292298 0.8730 0.8750 0.8770 0.8780 0.8800
11.326000 0.8800 0.8820 0.8820 0.8830 0.8820
11.359298 0.8820 0.8830 0.8830 0.8830 0.8850
11.392000 0.8850 0.8870 0.8880 0.8880 0.8900
11.425298 0.8900 0.8920 0.8920 0.8930 0.8950
11.459000 0.8950 0.8970 0.8970 0.8970 0.8970
11.492298 0.8970 0.8970 0.8970 0.8970 0.8970
11.525000 0.8970 0.8970 0.8970 0.8970 0.8970
11.558298 0.8970 0.8970 0.8970 0.8970 0.8970
11.592000 0.8970 0.8980 0.8980 0.8980 0.8980
11.625298 0.8980 0.8980 0.8980 0.8980 0.8970
11.658000 0.8970 0.8970 0.8970 0.8970 0.8950
11.691298 0.8950 0.8950 0.8950 0.8930 0.8930
11.725000 0.8930 0.8930 0.8930 0.8930 0.8920
11.758298 0.8920 0.8920 0.8920 0.8920 0.8920
11.792000 0.8900 0.8900 0.8900 0.8900 0.8920
11.825298 0.8920 0.8920 0.8920 0.8920 0.8930
11.858000 0.8930 0.8930 0.8930 0.8930 0.8930
11.891298 0.8930 0.8950 0.8970 0.8980 0.8980
11.925000 0.9000 0.9010 0.9010 0.9010 0.9010
11.958298 0.9010 0.9010 0.9010 0.9010 0.9030
11.991000 0.9030 0.9050 0.9050 0.9030 0.9050
12.024298 0.9050 0.9050 0.9050 0.9060 0.9080
12.058000 0.9080 0.9080 0.9080 0.9100 0.9100
12.091298 0.9080 0.9080 0.9080 0.9080 0.9080
12.124000 0.9080 0.9080 0.9100 0.9100 0.9100
12.157298 0.9100 0.9110 0.9110 0.9110 0.9110
12.191000 0.9130 0.9130 0.9150 0.9150 0.9150
12.224298 0.9150 0.9150 0.9150 0.9150 0.9160
12.258000 0.9150 0.9150 0.9150 0.9150 0.9150
12.291298 0.9150 0.9150 0.9150 0.9150 0.9150
12.324000 0.9150 0.9150 0.9130 0.9130 0.9150
12.357298 0.9150 0.9150 0.9150 0.9150 0.9150
12.391000 0.9150 0.9150 0.9150 0.9150 0.9150
12.424298 0.9150 0.9150 0.9150 0.9150 0.9150
12.457000 0.9150 0.9150 0.9150 0.9150 0.9150
12.490298 0.9150 0.9150 0.9150 0.9150 0.9150
12.524000 0.9150 0.9150 0.9150 0.9150 0.9150
12.557298 0.9150 0.9150 0.9150 0.9150 0.9150
12.590000 0.9150 0.9150 0.9130 0.9130 0.9130
12.623298 0.9130 0.9130 0.9110 0.9110 0.9100
12.657000 0.9100 0.9100 0.9100 0.9080 0.9080
12.690298 0.9080 0.9050 0.9050 0.9050 0.9050
12.724000 0.9050 0.9030 0.9030 0.9010 0.9010
12.757298 0.9000 0.9000 0.9000 0.9000 0.9000
12.790000 0.9000 0.8980 0.8980 0.8980 0.8980
12.823298 0.8980 0.8980 0.8980 0.8980 0.9000
12.857000 0.9000 0.9000 0.9000 0.9000 0.9000
12.890298 0.9000 0.9010 0.9010 0.9010 0.9010
12.923000 0.9010 0.9010 0.9010 0.9030 0.9030
12.956298 0.9030 0.9030 0.9030 0.9030 0.9030
12.990000 0.9050 0.9050 0.9050 0.9050 0.9050
13.023298 0.9060 0.9060 0.9060 0.9060 0.9060
13.056000 0.9080 0.9080 0.9060 0.9060 0.9080
13.089298 0.9080 0.9080 0.9080 0.9080 0.9080
13.123000 0.9080 0.9080 0.9080 0.9100 0.9100
13.156298 0.9100 0.9100 0.9110 0.9110 0.9110
13.189000 0.9110 0.9130 0.9110 0.9100 0.9110
13.222298 0.9110 0.9110 0.9110 0.9110 0.9100
13.256000 0.9100 0.9110 0.9110 0.9110 0.9110
13.289298 0.9110 0.9110 0.9110 0.9110 0.9110
13.323000 0.9110 0.9110 0.9110 0.9110 0.9100
13.356298 0.9100 0.9110 0.9110 0.9110 0.9110
13.389000 0.9130 0.9110 0.9110 0.9110 0.9110
13.422298 0.9110 0.9110 0.9110 0.9110 0.9110
13.456000 0.9110 0.9100 0.9100 0.9060 0.9060
13.489298 0.9050 0.9030 0.9030 0.9010 0.9000
13.522000 0.9000 0.8980 0.8950 0.8930 0.8930
13.555298 0.8920 0.8900 0.8880 0.8850 0.8850
13.589000 0.8830 0.8820 0.8800 0.8770 0.8720
13.622298 0.8700 0.8670 0.8650 0.8630 0.8600
13.655000 0.8580 0.8550 0.8500 0.8470 0.8400
13.688298 0.8370 0.8330 0.8300 0.8250 0.8220
13.722000 0.8170 0.8070 0.8030 0.8000 0.7940
13.755298 0.7920 0.7890 0.7850 0.7820 0.7790
13.789000 0.7750 0.7720 0.7700 0.7700 0.7690
13.822298 0.7700 0.7700 0.7700 0.7700 0.7720
13.855000 0.7770 0.7820 0.7920 0.7990 0.8020
13.888298 0.8080 0.8150 0.8220 0.8330 0.8400
13.922000 0.8450 0.8500 0.8550 0.8630 0.8700
13.955298 0.8780 0.8820 0.8870 0.8930 0.8980
13.988000 0.9000 0.9030 0.9060 0.9100 0.9130
14.021298 0.9180 0.9200 0.9250 0.9280 0.9330
14.055000 0.9360 0.9410 0.9430 0.9480 0.9510
14.088298 0.9530 0.9550 0.9580 0.9600 0.9610
14.121000 0.9630 0.9660 0.9710 0.9750 0.9750
14.154298 0.9760 0.9800 0.9800 0.9830 0.9850
14.188000 0.9860 0.9860 0.9860 0.9880 0.9900
14.221298 0.9900 0.9900 0.9930 0.9930 0.9950
14.254000 0.9950 0.9960 0.9960 0.9960 1.0000
14.287298 1.0000 1.0000 1.0010 1.0010 1.0010
14.321000 1.0010 1.0010 1.0010 1.0010 1.0010
14.354298 1.0010 1.0010 1.0010 1.0010 1.0010
14.388000 1.0010 1.0010 1.0010 1.0010 1.0010
14.421298 1.0010 1.0010 1.0010 1.0010 1.0000
14.454000 1.0000 1.0000 1.0000 1.0000 1.0000
14.487298 1.0000 1.0000 0.9980 0.9980 0.9980
14.521000 0.9980 0.9980 0.9980 0.9980 0.9980
14.554298 0.9980 0.9980 0.9980 0.9980 0.9980
14.587000 0.9980 0.9980 0.9980 0.9980 0.9980
14.620298 0.9980 0.9980 1.0000 1.0000 1.0010
14.654000 1.0010 1.0010 1.0010 1.0010 1.0010
14.687298 1.0010 1.0010 1.0010 1.0010 1.0010
14.720000 1.0000 1.0000 1.0010 1.0010 1.0010
14.753298 1.0010 1.0010 1.0000 1.0000 1.0000
14.787000 1.0000 1.0000 1.0010 1.0010 1.0010
14.820298 1.0010 1.0030 1.0010 1.0010 1.0010
14.854000 1.0010 1.0010 1.0010 1.0010 1.0010
14.887298 1.0010 1.0010 1.0010 1.0010 1.0010
14.920000 1.0000 1.0000 1.0000 1.0000 0.9980
14.953298 0.9960 0.9950 0.9950 0.9950 0.9950
14.987000 0.9930 0.9930 0.9930 0.9930 0.9910
15.020298 0.9910 0.9900 0.9880 0.9880 0.9880
15.053000 0.9880 0.9880 0.9880 0.9880 0.9880
15.086298 0.9880 0.9880 0.9880 0.9860 0.9860
15.120000 0.9850 0.9830 0.9830 0.9830 0.9830
15.153298 0.9830 0.9830 0.9810 0.9810 0.9830
15.186000 0.9830 0.9810 0.9810 0.9800 0.9810
15.219298 0.9800 0.9780 0.9780 0.9780 0.9780
15.253000 0.9760 0.9750 0.9750 0.9730 0.9710
15.286298 0.9710 0.9700 0.9680 0.9660 0.9660
15.320000 0.9660 0.9650 0.9650 0.9630 0.9630
15.353298 0.9610 0.9610 0.9580 0.9550 0.9530
15.386000 0.9530 0.9510 0.9510 0.9500 0.9450
15.419298 0.9410 0.9360 0.9350 0.9350 0.9330
15.453000 0.9300 0.9260 0.9250 0.9230 0.9230
15.486298 0.9230 0.9230 0.9210 0.9200 0.9200
15.519000 0.9160 0.9160 0.9150 0.9150 0.9150
15.552298 0.9130 0.9130 0.9130 0.9130 0.9110
15.586000 0.9100 0.9060 0.9060 0.9050 0.9030
15.619298 0.9030 0.9010 0.9010 0.9000 0.9000
15.652000 0.9000 0.8980 0.8950 0.8920 0.8900
15.685298 0.8870 0.8850 0.8850 0.8830 0.8800
15.719000 0.8720 0.8700 0.8700 0.8670 0.8650
15.752298 0.8630 0.8630 0.8620 0.8600 0.8550
15.785000 0.8530 0.8520 0.8480 0.8480 0.8480
15.818298 0.8430 0.8400 0.8400 0.8380 0.8330
15.852000 0.8300 0.8280 0.8280 0.8280 0.8270
15.885298 0.8270 0.8270 0.8250 0.8230 0.8220
15.919000 0.8200 0.8150 0.8100 0.8050 0.8030
15.952298 0.8020 0.8020 0.8020 0.8000 0.8000
15.985000 0.7990 0.7970
##END=
