##TITLE=Myrcene
##JCAMP-DX=4.24
##DATA TYPE=INFRARED SPECTRUM
##ORIGIN=NIST Mass Spectrometry Data Center
##OWNER=NIST Standard Reference Data Program
Collection (C) 2003 copyright by the U.S. Secretary of Commerce
on behalf of the United States of America. All rights reserved.
##CAS REGISTRY NO=123-35-3
##MOLFORM=C10H16
##$NIST SOURCE=MSDC-IR
##SPECTROMETER/DATA SYSTEM=HP-GC/MS/IRD
##STATE=gas
##XUNITS=1/CM
##YUNITS=ABSORBANCE
##XFACTOR=1.0
##YFACTOR=0.000000300
##DELTAX=4.0
##FIRSTX=550.0
##LASTX=3846.0
##FIRSTY=0.000233
##MAXX=3846
##MINX=550
##MAXY=0.003
##MINY=0
##NPOINTS=825
##XYDATA=(X++(Y..Y))
550.0 778 605 449 418 594 710 711 580 450 522
590.0 546 419 203 214 177 155 241 272 364 261
630.0 50 83 80 125 142 112 83 166 403 408
670.0 313 190 12 104 166 143 95 118 277 244
710.0 243 161 44 110 241 284 341 311 204 195
750.0 238 263 269 220 273 287 303 320 307 382
790.0 410 525 638 643 767 809 922 1049 569 731
830.0 1150 1052 1030 944 872 731 672 794 916 1006
870.0 1169 1560 2238 3270 4599 5982 7097 7471 7279 6687
910.0 5659 4553 3536 2671 1992 1474 1259 1207 928 766
950.0 843 927 944 950 1042 1247 1481 1778 2158 2356
990.0 2360 2244 1864 1439 1164 957 823 672 679 747
1030.0 701 722 678 636 614 656 678 685 670 721
1070.0 760 755 780 773 719 793 957 1083 1264 1324
1110.0 1187 1033 853 558 407 415 366 330 329 269
1150.0 345 406 310 174 147 257 284 232 259 196
1190.0 137 206 253 271 329 363 399 339 320 322
1230.0 218 221 227 241 311 318 286 281 224 213
1270.0 239 213 270 319 305 370 445 456 457 449
1310.0 473 439 424 498 494 474 477 437 502 683
1350.0 818 846 843 930 1111 1308 1561 1847 1970 1877
1390.0 1725 1530 1369 1308 1296 1309 1368 1454 1595 1789
1430.0 1934 1990 2080 2200 2223 2211 2050 1916 1822 1630
1470.0 1373 1132 1030 823 677 627 586 530 437 274
1510.0 199 254 242 240 344 409 432 384 315 417
1550.0 541 526 511 721 969 1135 1284 1489 1822 2193
1590.0 2422 2557 2542 2348 1987 1702 1496 1282 1259 1341
1630.0 1343 1201 1057 938 763 569 426 447 450 437
1670.0 384 337 275 116 65 128 118 6 11 127
1710.0 153 64 67 139 109 48 2 16 85 65
1750.0 0 67 110 139 118 118 211 308 398 494
1790.0 571 621 693 700 701 697 631 614 584 483
1830.0 427 416 369 285 215 219 211 153 152 111
1870.0 104 161 159 151 116 144 157 115 127 106
1910.0 68 93 107 111 123 96 116 121 119 179
1950.0 152 109 131 129 144 177 178 185 204 153
1990.0 123 137 177 141 99 158 123 84 112 92
2030.0 115 145 120 101 100 90 75 63 94 168
2070.0 201 176 162 141 68 75 81 61 96 167
2110.0 192 122 90 96 120 123 71 24 18 54
2150.0 90 96 77 111 126 73 57 84 91 50
2190.0 41 57 61 79 102 111 126 109 58 68
2230.0 88 132 82 20 20 0 7 28 42 28
2270.0 35 29 14 46 36 65 109 94 106 103
2310.0 113 103 76 96 128 117 68 50 27 53
2350.0 100 72 88 117 91 136 154 122 130 121
2390.0 129 147 143 139 161 157 126 113 139 177
2430.0 176 188 191 173 162 150 135 116 119 109
2470.0 133 187 245 242 179 201 230 220 228 212
2510.0 187 175 211 199 133 133 164 232 214 131
2550.0 134 210 220 208 245 184 108 96 133 204
2590.0 231 268 269 216 205 178 148 183 246 324
2630.0 264 215 240 277 269 238 279 297 303 334
2670.0 317 299 278 294 338 275 246 266 261 275
2710.0 338 370 435 467 494 583 619 629 598 576
2750.0 586 581 538 532 510 441 457 464 521 608
2790.0 618 652 747 842 843 841 932 1070 1155 1281
2830.0 1357 1504 1816 2124 2495 2986 3544 4134 4821 5210
2870.0 5426 5592 5478 5387 5480 5608 5833 6108 6439 6964
2910.0 7592 8280 8970 9506 9838 10000 9800 9219 8605 8008
2950.0 7434 7053 6871 6753 6826 7013 7125 7086 6854 6522
2990.0 6066 5604 5090 4745 4533 4289 4080 3795 3401 3081
3030.0 2823 2710 2651 2568 2426 2231 2141 2107 2060 2081
3070.0 2173 2447 2914 3488 4023 4357 4231 3687 3051 2361
3110.0 1662 1220 987 803 656 587 538 506 479 479
3150.0 595 571 394 346 395 457 381 351 371 327
3190.0 311 330 295 242 227 255 274 237 318 378
3230.0 323 324 335 287 285 272 251 263 358 381
3270.0 261 288 351 346 306 221 247 271 274 280
3310.0 336 345 310 224 145 179 172 116 132 254
3350.0 259 193 263 340 320 278 291 303 287 288
3390.0 316 281 272 250 238 263 169 63 96 277
3430.0 362 271 207 282 324 284 268 219 227 256
3470.0 208 234 294 255 195 187 226 247 172 167
3510.0 203 246 346 393 300 255 191 208 175 88
3550.0 151 258 262 187 46 43 214 217 191 180
3590.0 190 204 211 232 108 37 95 138 183 108
3630.0 106 214 280 263 137 140 225 261 287 236
3670.0 202 241 242 153 124 204 251 300 330 282
3710.0 186 146 190 202 251 233 161 134 144 175
3750.0 262 220 181 252 347 395 376 331 315 285
3790.0 288 325 336 388 406 367 266 186 224 248
3830.0 338 362 248 211 300
##END=
