##TITLE=2,5-Dimethylpyrazine
##JCAMP-DX=4.24
##DATA TYPE=INFRARED SPECTRUM
##ORIGIN=NIST Mass Spectrometry Data Center
##OWNER=NIST Standard Reference Data Program
Collection (C) 2003 copyright by the U.S. Secretary of Commerce
on behalf of the United States of America. All rights reserved.
##CAS REGISTRY NO=123-32-0
##MOLFORM=C6H8N2
##$NIST SOURCE=MSDC-IR
##SPECTROMETER/DATA SYSTEM=HP-GC/MS/IRD
##STATE=gas
##XUNITS=1/CM
##YUNITS=ABSORBANCE
##XFACTOR=1.0
##YFACTOR=0.000001700
##DELTAX=4.0
##FIRSTX=550.0
##LASTX=3846.0
##FIRSTY=0.000126
##MAXX=3846
##MINX=550
##MAXY=0.017
##MINY=0
##NPOINTS=825
##XYDATA=(X++(Y..Y))
550.0 74 48 0 49 85 42 31 44 95 131
590.0 94 69 82 90 105 103 74 61 88 107
630.0 125 145 140 114 71 69 65 54 48 39
670.0 62 67 58 59 53 49 44 57 78 69
710.0 110 204 258 325 429 471 467 437 436 409
750.0 281 202 180 144 135 132 125 134 118 99
790.0 119 129 148 168 179 192 200 214 229 229
830.0 185 181 198 246 304 379 491 591 702 783
870.0 884 1041 1011 793 667 603 518 435 354 289
910.0 268 281 297 344 414 512 677 910 1157 1336
950.0 1426 1434 1393 1260 1039 797 590 465 412 399
990.0 407 486 624 807 1117 1565 2195 3049 3900 4254
1030.0 3915 3842 4423 4355 3437 2563 1995 1609 1303 1034
1070.0 855 739 657 589 527 472 440 427 440 463
1110.0 475 472 466 482 540 667 845 1062 1366 1723
1150.0 2107 2401 2493 2430 2256 1971 1487 950 605 431
1190.0 338 299 267 253 270 279 300 349 397 417
1230.0 427 483 578 701 858 945 981 992 976 879
1270.0 679 511 450 461 473 511 590 744 1036 1557
1310.0 2448 3673 4883 5775 6375 6649 6488 5612 4248 3125
1350.0 2328 1788 1495 1386 1445 1694 2033 2299 2439 2518
1390.0 2475 2215 1826 1557 1480 1472 1480 1502 1522 1513
1430.0 1477 1457 1485 1597 1748 1887 2031 2341 2930 4005
1470.0 5715 7915 9543 10000 9847 9408 8440 6103 3450 1985
1510.0 1399 1185 1067 989 933 877 843 819 784 749
1550.0 707 648 596 563 526 475 438 417 405 384
1590.0 362 345 317 297 285 259 239 225 222 215
1630.0 201 187 185 183 176 156 149 159 140 133
1670.0 129 115 118 119 122 122 108 101 98 99
1710.0 104 95 85 86 83 76 77 74 63 67
1750.0 72 68 82 107 124 140 166 201 248 299
1790.0 337 358 364 361 344 316 275 225 174 139
1830.0 108 78 71 67 58 50 61 82 88 81
1870.0 74 80 84 86 94 95 99 96 85 94
1910.0 84 68 72 71 78 74 66 84 96 104
1950.0 128 151 168 177 162 154 142 121 112 101
1990.0 84 69 64 66 63 54 56 52 52 53
2030.0 49 49 41 31 30 28 30 37 29 25
2070.0 36 38 37 53 71 73 65 71 87 98
2110.0 104 105 104 95 78 60 39 30 29 19
2150.0 17 25 25 19 21 23 22 36 47 40
2190.0 26 24 25 13 19 16 4 12 33 48
2230.0 47 51 53 47 47 52 56 57 51 47
2270.0 42 29 25 28 31 37 39 34 41 58
2310.0 67 76 79 72 75 78 74 78 73 69
2350.0 53 38 36 26 17 28 35 34 42 44
2390.0 40 48 56 61 63 54 44 39 36 36
2430.0 45 55 56 66 68 66 73 68 67 50
2470.0 39 54 58 59 59 39 35 40 41 48
2510.0 39 33 44 47 52 57 60 66 64 60
2550.0 62 60 56 48 30 19 22 32 35 36
2590.0 41 53 78 95 102 116 109 98 92 73
2630.0 51 52 67 61 58 64 59 53 61 48
2670.0 52 57 52 57 55 53 57 55 54 51
2710.0 57 79 86 91 106 132 164 189 210 216
2750.0 205 180 147 116 110 119 116 110 115 121
2790.0 111 122 126 128 144 168 189 205 233 277
2830.0 319 360 416 478 558 648 762 888 983 1050
2870.0 1109 1168 1199 1234 1269 1285 1289 1294 1345 1400
2910.0 1494 1666 1967 2444 3047 3606 3924 3996 3910 3664
2950.0 3185 2600 2135 1894 1833 1906 2060 2185 2342 2606
2990.0 2980 3503 4130 4610 4742 4664 4531 4238 3596 2824
3030.0 2299 2016 1842 1757 1722 1737 1821 1946 2123 2298
3070.0 2395 2378 2234 2019 1758 1419 1060 779 575 442
3110.0 345 293 230 206 208 183 164 149 119 97
3150.0 99 96 78 66 60 49 48 50 54 60
3190.0 76 82 62 54 39 59 64 42 45 45
3230.0 55 65 56 46 44 47 47 49 48 22
3270.0 9 25 32 38 51 68 66 33 26 42
3310.0 44 42 43 44 40 51 60 53 50 36
3350.0 32 36 41 57 66 62 48 48 51 66
3390.0 76 46 47 68 56 61 71 70 69 54
3430.0 20 14 43 53 67 52 56 69 52 28
3470.0 21 55 60 70 65 25 15 29 46 47
3510.0 35 35 54 44 34 37 20 20 40 19
3550.0 18 49 42 32 46 50 29 17 22 27
3590.0 25 24 6 18 49 37 18 23 12 14
3630.0 19 7 8 13 13 21 28 29 32 29
3670.0 24 24 33 24 35 54 45 33 25 28
3710.0 30 22 34 50 41 40 46 34 23 31
3750.0 36 28 24 30 36 36 49 43 39 30
3790.0 9 30 43 15 4 30 40 30 48 49
3830.0 37 23 21 45 55
##END=
