##TITLE=2-Amino-3-benzyl-5-(4-methoxyphenyl)pyrazine-1-oxide
##JCAMP-DX=4.24
##DATA TYPE=INFRARED SPECTRUM
##ORIGIN=EPA-IR VAPOR PHASE LIBRARY
##OWNER=SRD/NIST
Collection (C) 2003 copyright by the U.S. Secretary of Commerce
on behalf of the United States of America. All rights reserved.
##CAS REGISTRY NO=123437-73-0
##MOLFORM=C18H17N3O2
##$NIST SOURCE=MSDC-IR
##STATE=gas
##XUNITS=1/CM
##YUNITS=ABSORBANCE
##XFACTOR=1.
##YFACTOR=0.001
##DELTAX=1.92898
##FIRSTX=549.8
##LASTX=4000.7
##FIRSTY=4.333
##MAXX=4000.7
##MINX=549.759
##MAXY=0.019653
##MINY=0
##NPOINTS=1790
##XYDATA=(X++(Y..Y))
549.759  4.333 4.273 3.913 3.883 3.983 3.053 3.933 5.603 4.273 2.683
569.049  2.813 1.953 2.103 2.813 3.043 3.423 3.093 3.473 3.633 2.893
588.339  2.533 2.513 2.083 2.513 3.233 2.593 2.543 2.533 2.363 2.653
607.628  2.773 2.753 3.073 3.323 3.123 2.793 2.543 3.283 3.403 2.863
626.918  3.133 2.553 2.173 2.653 2.803 2.933 2.873 2.883 2.983 2.743
646.208  2.853 2.893 2.513 2.643 2.493 2.013 2.313 2.333 2.293 2.423
665.498  2.743 3.473 3.153 3.013 3.293 3.093 3.123 3.443 3.183 2.703
684.787  2.503 2.483 2.643 2.853 3.293 3.923 3.973 4.173 4.313 3.923
704.077  3.613 3.413 3.253 2.963 2.853 2.753 2.853 3.073 3.193 3.653
723.367  3.633 3.663 3.633 3.683 4.103 3.953 3.743 3.753 3.413 3.113
742.657  2.893 2.553 2.493 2.473 2.483 3.213 3.043 2.083 2.303 2.763
761.947  2.773 3.073 2.843 2.293 2.463 3.033 3.333 2.463 2.123 2.483
781.236  2.523 2.453 2.223 2.423 3.193 3.043 2.433 2.873 3.343 2.953
800.526  2.823 2.303 2.133 2.973 3.043 2.613 2.113 2.273 2.653 2.913
819.816  2.563 2.193 2.803 2.853 3.123 3.373 3.503 3.893 4.063 4.363
839.106  3.953 3.013 2.833 2.813 2.583 2.893 3.043 2.423 2.453 2.293
858.395  1.6022 1.642 1.9159 1.9231 2.173 2.583 2.273 2.623 2.693 1.5801
877.685  1.3307 1.557 1.3505 1.2494 1.9228 2.173 1.7959 2.483 2.693 2.003
896.975  1.983 2.303 2.353 1.9276 1.6604 1.8753 1.973 1.6599 1.3235 1.3326
916.265  1.4718 1.8787 2.453 2.283 1.7478 1.953 2.343 2.223 2.073 1.973
935.555  1.7992 2.053 1.933 1.6659 1.8002 2.003 2.603 2.353 1.973 1.5332
954.844  0.697 0.97052 1.3693 1.2896 1.4883 1.0431 0.807 1.491 1.5552 1.0669
974.134  1.5403 1.8406 1.0836 1.2428 1.6082 1.584 1.4683 1.8339 2.323 2.013
993.424  2.023 2.473 2.153 1.7969 1.983 1.8702 1.993 2.423 2.733 2.463
1012.714  1.9063 2.563 3.203 2.873 2.943 3.303 3.523 3.753 4.703 5.123
1032.003  5.373 6.343 5.513 4.293 4.793 5.543 4.893 4.493 4.293 3.743
1051.293  3.003 3.273 3.813 3.223 2.673 3.293 3.553 2.003 2.003 2.043
1070.583  2.123 2.703 3.493 3.523 2.733 3.563 4.293 3.303 1.5359 3.133
1089.873  3.613 3.533 4.143 4.063 3.583 3.533 4.233 3.263 2.253 2.823
1109.163  4.243 3.973 4.813 5.683 5.993 5.393 4.873 4.613 4.593 5.193
1128.452  5.683 5.683 4.643 5.323 5.693 6.213 6.663 5.943 5.373 5.363
1147.742  6.363 7.073 6.783 5.823 5.133 4.853 5.143 5.553 5.433 5.973
1167.032  6.773 7.993 10.333 9.953 9.063 9.573 8.373 7.383 7.753 6.563
1186.322  6.273 7.613 7.023 6.983 7.363 5.753 5.833 7.773 8.803 9.303
1205.611  9.313 9.303 8.873 8.403 9.003 7.893 7.023 8.533 8.363 8.453
1224.901  8.833 7.463 7.883 8.933 8.603 9.243 10.133 11.173 12.723 14.033
1244.191  14.503 14.633 15.293 14.623 12.823 11.183 9.933 9.233 8.343 7.373
1263.481  6.373 6.613 6.893 5.743 5.873 6.613 6.353 5.903 5.723 6.223
1282.771  6.843 6.113 5.443 5.333 4.903 4.653 4.423 4.273 4.483 4.383
1302.060  4.013 3.603 3.503 3.463 2.983 2.843 2.873 2.763 2.723 2.703
1321.350  2.713 2.773 2.803 2.813 2.723 2.663 2.483 2.293 2.373 2.473
1340.640  2.293 2.213 2.453 2.523 2.393 2.413 2.553 2.663 2.623 2.753
1359.930  2.843 2.773 2.963 3.123 3.223 3.653 3.983 4.313 4.813 5.053
1379.219  5.283 5.073 4.593 4.333 4.173 3.713 3.113 2.833 2.853 3.073
1398.509  3.053 2.833 3.023 3.483 3.733 3.913 4.333 4.793 5.383 6.203
1417.799  7.003 7.863 8.333 8.613 8.733 8.393 8.293 8.763 9.373 9.993
1437.089  11.083 12.703 14.043 15.563 17.193 18.473 19.433 19.653 19.323 18.333
1456.378  16.753 14.713 12.523 10.313 8.203 6.803 6.003 5.273 4.663 4.103
1475.668  3.953 3.693 3.423 3.503 3.343 3.133 3.403 3.623 3.783 4.183
1494.958  4.153 4.103 4.163 4.203 4.403 4.663 5.033 5.563 5.913 6.383
1514.248  6.693 6.483 5.743 4.823 4.213 3.323 2.563 2.513 2.773 2.553
1533.538  2.143 2.173 2.333 2.643 2.553 2.163 2.283 2.583 2.833 2.733
1552.827  2.713 2.883 2.603 2.293 2.153 2.563 2.943 3.033 3.113 3.243
1572.117  3.093 2.673 2.663 3.013 3.323 3.643 3.963 4.073 4.313 4.383
1591.407  4.683 5.073 5.423 6.063 6.713 7.593 8.543 9.713 10.563 10.823
1610.697  10.833 10.393 9.553 8.463 7.123 5.913 5.203 4.663 4.033 3.463
1629.986  3.013 2.893 2.863 2.623 2.423 2.333 2.223 2.183 2.373 2.223
1649.276  1.7721 1.8433 1.8025 1.8329 1.8918 1.7421 1.7118 1.7495 1.7493 1.8005
1668.566  1.827 1.5854 1.4902 1.7597 1.7586 1.46 1.6403 1.6322 1.5483 1.7036
1687.856  1.7461 1.4697 1.3826 1.6215 1.8897 1.8387 1.4825 1.6352 1.6439 1.6501
1707.146  1.7027 1.7496 1.8527 1.8066 1.8958 1.868 1.8898 1.6593 1.525 1.6806
1726.435  1.5928 1.5461 1.5331 1.6437 1.8031 1.7055 1.664 1.6661 1.5218 1.5446
1745.725  1.6272 1.7016 1.7155 1.6419 1.5977 1.6034 1.6894 1.5914 1.5117 1.6784
1765.015  1.5969 1.3727 1.4243 1.3769 1.4998 1.6043 1.556 1.7182 1.75 1.7403
1784.305  1.7429 1.6877 1.6673 1.7195 1.6458 1.5999 1.735 1.8292 1.8142 1.8936
1803.594  1.963 1.9229 1.8569 1.7121 1.8487 1.7112 1.5525 1.943 2.163 1.943
1822.884  1.7433 1.8994 2.023 1.8487 1.5374 1.4156 1.391 1.4722 1.7058 1.6829
1842.174  1.5474 1.4752 1.4874 1.6444 1.7902 1.8057 1.7286 1.711 1.788 1.7862
1861.464  1.6217 1.6117 1.7845 1.7479 1.8055 2.073 2.093 1.7541 1.632 1.6338
1880.754  1.5352 1.5248 1.446 1.7546 1.837 1.5281 1.608 1.6821 1.6238 1.6365
1900.043  1.5473 1.3161 1.4022 1.5564 1.3564 1.396 1.5947 1.6488 1.6285 1.5799
1919.333  1.6169 1.5592 1.659 1.6015 1.6315 1.9069 1.7893 1.5724 1.4782 1.4341
1938.623  1.4887 1.6146 1.6669 1.588 1.5064 1.4243 1.3659 1.565 1.6197 1.5274
1957.913  1.4029 1.2817 1.387 1.6904 1.704 1.3137 1.1289 1.4406 1.4429 1.2933
1977.202  1.4187 1.4362 1.4165 1.331 1.4688 1.4442 1.2177 1.2947 1.3652 1.203
1996.492  1.3256 1.4316 1.2454 1.2145 1.2812 1.4949 1.6291 1.4745 1.3084 1.1483
2015.782  1.1486 1.4177 1.3444 0.95063 1.0102 1.2941 1.3309 1.2807 1.3692 1.4236
2035.072  1.4592 1.3633 1.1163 1.1424 1.3175 1.3553 1.2905 1.309 1.2757 1.3837
2054.362  1.47 1.5423 1.5055 1.467 1.5982 1.4861 1.2588 1.2447 1.2944 1.2868
2073.651  1.3152 1.2901 1.2386 1.2449 1.3688 1.4101 1.4629 1.4988 1.3482 1.215
2092.941  1.2495 1.3766 1.2588 1.1187 1.256 1.3072 1.2657 1.0667 1.1339 1.3945
2112.231  1.319 1.2839 1.2331 1.0453 1.0944 1.1604 1.1358 1.4804 1.5666 1.3574
2131.521  1.3632 1.2684 1.3727 1.3703 1.1339 1.1055 1.0631 1.0483 1.0637 1.0922
2150.810  1.1018 1.4195 1.5165 1.3817 1.398 1.0948 0.99619 1.2234 1.3536 1.5487
2170.100  1.5279 1.4321 1.4478 1.2251 1.2228 1.4032 1.5292 1.5691 1.4711 1.4321
2189.390  1.3202 1.25 1.1444 1.0991 1.2326 1.2374 1.1628 1.1304 1.4167 1.5984
2208.680  1.363 1.3493 1.2465 1.1642 1.3141 1.4404 1.5329 1.4155 1.2679 1.1167
2227.970  0.8782 0.936812 1.2653 1.2576 1.1674 1.1893 1.2572 1.3468 1.3641 1.3165
2247.259  1.3525 1.2023 1.1521 1.2546 1.0695 1.0721 1.1497 1.2472 1.3529 1.5086
2266.549  1.4788 1.2687 1.3784 1.2038 0.95394 1.0724 1.3819 1.172 0.98765 1.3322
2285.839  1.3339 1.1968 1.1536 1.1976 1.2549 1.3995 1.3797 1.2978 1.1348 0.8778
2305.129  0.77 0.907 1.2017 1.3187 1.3161 1.2011 1.0645 0.8678 0.8412 0.8784
2324.418  0.96157 1.1932 1.2926 1.1455 1.01934 1.0728 1.2171 1.2294 1.1446 0.9085
2343.708  1.0996 1.2941 1.0908 1.1595 1.0983 0.92545 1.0751 1.2456 1.2456 1.2223
2362.998  0.8841 0.655 0.754 1.01473 1.0346 0.8975 1.1465 1.3782 1.2657 1.0841
2382.288  1.4356 1.4418 1.0623 1.1112 1.2035 1.3742 1.0689 0.97695 1.1687 1.2088
2401.578  1.3202 1.2732 1.2473 1.2019 1.1402 0.9455 1.1115 1.2656 1.2184 1.1942
2420.867  1.2597 1.4566 0.98329 0.625 0.546 0.677 0.9201 1.1376 1.1983 0.98193
2440.157  0.99998 1.0797 1.0551 0.94689 0.738 0.64 0.827 1.1061 1.3935 1.1049
2459.447  0.774 0.8574 1.3292 1.3718 1.066 1.2289 1.0683 0.701 0.8744 0.935708
2478.737  0.746 0.95528 1.2573 1.2536 1.3984 1.3968 0.923 0.94984 1.0392 1.129
2498.026  1.095 0.8764 1.046 1.3321 1.1823 0.95369 0.8435 0.896 0.92588 1.0593
2517.316  1.0856 0.99246 1.37 1.5838 1.3338 1.2582 1.4758 1.2522 1.1252 1.2128
2536.606  1.1924 0.99255 0.808 0.98585 1.3797 1.362 1.069 1.1792 1.3857 1.4084
2555.896  1.3014 1.2981 1.2631 1.0408 0.9091 0.8399 1.0742 1.2675 1.2268 1.00229
2575.186  1.0348 1.1585 0.8806 1.00424 1.1612 1.0441 1.0517 1.1672 1.313 1.2185
2594.475  1.0655 1.1288 0.762 0.724 1.4305 1.6061 1.2559 1.02434 0.911 1.0564
2613.765  0.99735 0.8708 1.0846 1.0365 1.1327 1.1527 1.0621 1.1438 1.1448 1.175
2633.055  1.3959 1.1963 0.816 0.8369 1.2153 1.3299 1.1303 1.058 0.97488 1.1198
2652.345  1.3673 1.4731 0.96394 0.605 1.0367 1.0762 1.0509 1.1328 0.8677 0.694
2671.634  0.677 0.693 0.8936 1.3282 1.2836 0.934592 0.587 0.822 1.00714 0.642
2690.924  0.563 0.738 0.8462 1.0527 1.1877 1.00302 0.806 0.753 0.729 0.809
2710.214  0.764 0.593 0.96714 1.1158 0.9021 0.98438 1.0482 0.8552 0.8 0.703
2729.504  0.664 0.9224 1.1066 1.0485 0.8757 1.0071 1.1965 1.02403 0.793 0.939182
2748.794  1.01183 0.666 0.537 0.98511 1.1013 0.677 0.8556 1.4854 1.5655 1.4083
2768.083  1.2458 0.824 0.543 0.631 0.8397 1.0925 1.051 1.1257 1.3629 1.3015
2787.373  1.281 1.0385 0.99324 0.95448 1.0979 1.3498 1.00454 0.92424 1.1448 1.01395
2806.663  1.0501 1.1162 1.0615 1.1792 1.3427 1.2546 1.3859 1.7404 1.6696 1.5576
2825.953  1.4412 1.6603 1.5795 1.3215 1.436 1.6697 1.7845 2.473 2.863 2.633
2845.242  2.533 2.233 2.123 2.093 2.333 2.243 1.6972 1.6804 1.3308 1.0075
2864.532  1.8636 1.963 1.5471 1.4085 1.4007 1.5726 1.6958 1.3795 0.93122 0.9131
2883.822  1.206 1.3489 1.4926 1.5793 1.5656 1.6297 1.3735 1.2754 1.6093 1.7663
2903.112  1.8375 2.113 2.273 2.313 2.503 2.623 2.433 2.463 2.413 2.433
2922.401  2.533 2.323 2.143 2.313 2.613 2.843 2.563 2.923 3.433 3.113
2941.691  3.233 3.293 3.143 2.913 2.713 2.893 2.563 2.093 2.083 2.443
2960.981  2.643 2.543 2.153 1.3616 1.5416 2.013 1.8654 1.5158 1.7246 1.8706
2980.271  1.5931 1.7214 1.675 1.538 1.425 1.2263 1.2285 1.5381 2.023 2.403
2999.561  2.483 2.673 2.943 3.173 3.003 2.663 2.403 2.223 2.393 2.473
3018.850  2.283 2.083 2.073 2.073 2.653 2.973 2.973 3.043 3.163 3.513
3038.140  2.903 2.503 2.613 2.233 2.313 2.693 2.333 1.993 2.493 3.023
3057.430  2.943 2.663 2.683 2.543 2.883 3.443 3.313 3.213 3.103 3.073
3076.720  3.003 2.773 2.673 2.553 2.463 1.7916 1.5236 1.777 1.5303 1.4018
3096.009  1.6827 1.9285 1.4915 1.5291 1.8151 1.607 1.6337 1.6694 1.0979 1.0325
3115.299  1.3304 1.3814 1.4868 1.5508 1.1054 0.524 0.936741 0.932093 0.92693 1.073
3134.589  1.2192 1.264 0.312 0.092 0.8708 1.3042 1.2679 1.0419 0.777 0.8749
3153.879  0.937705 0.721 0.71 1.4783 1.8336 1.6987 1.6194 0.99859 1.056 1.7037
3173.169  1.7108 1.5329 1.666 1.5697 1.0751 0.8378 0.824 0.79 0.936363 0.804
3192.458  0.818 0.98672 1.1138 1.2154 1.3035 1.1491 0.97569 1.105 1.362 1.4445
3211.748  0.97315 0.98662 1.0498 0.8978 1.0789 1.1768 1.371 1.0722 0.728 1.1674
3231.038  1.1218 1.0454 0.8505 0.508 0.786 0.896 0.941196 1.1419 0.742 0.414
3250.328  0.562 0.812 1.4418 1.7936 1.4409 1.2679 1.3546 1.3891 1.7284 1.3814
3269.617  0.96112 1.002 0.8655 0.56 0.661 1.3541 1.5634 1.2781 0.9115 0.525
3288.907  0.141 0.26 0.8719 1.1607 1.6551 1.7533 1.0535 1.2102 1.5777 1.5794
3308.197  1.4758 1.2538 1.2492 1.7868 1.8175 0.98564 1.0816 1.1044 0.761 0.737
3327.487  0.445 0.494 0.825 1.098 1.1575 0.935818 1.4178 2.033 1.8733 2.093
3346.777  1.5485 0.95392 1.0631 1.2739 1.294 0.532 0.692 1.1789 1.1725 1.3141
3366.066  1.209 1.0954 1.4254 1.6683 1.9177 1.993 1.8269 1.7839 1.8199 1.574
3385.356  1.2309 1.5607 1.7122 1.6329 1.8841 2.483 2.653 2.913 3.433 2.993
3404.646  2.873 3.573 4.163 4.003 3.173 2.253 2.253 2.323 2.153 2.183
3423.936  1.806 1.3197 1.2661 1.7937 1.6136 1.2634 1.1851 0.933502 0.627 0.597
3443.225  1.3183 1.963 1.6114 1.2763 1.7944 1.7599 1.02532 0.636 1.1666 1.5656
3462.515  1.202 1.1204 1.1523 1.1918 1.5418 1.722 1.709 2.123 2.633 2.133
3481.805  1.5815 2.233 2.973 2.843 2.553 2.513 2.383 2.443 2.663 2.823
3501.095  2.463 2.643 2.403 2.123 2.993 2.733 2.243 2.493 2.643 2.203
3520.385  2.063 2.113 2.363 2.463 2.163 1.8098 1.2059 1.0821 1.2987 1.1552
3539.674  1.0601 1.1458 1.4613 1.3097 1.106 1.5779 1.5733 1.2508 0.95328 1.2886
3558.964  1.7558 1.4329 0.8894 0.9089 1.0875 1.0722 1.1581 1.4462 1.3493 0.8572
3578.254  0.703 0.834 1.5285 1.943 1.5991 1.342 1.5272 1.6522 1.00233 1.3166
3597.544  1.7199 1.0107 0.94814 1.2191 1.0797 0.815 0.701 0.8511 1.1196 1.4283
3616.833  1.372 1.0994 1.1365 1.4164 1.7002 1.2238 1.1653 1.6526 1.9065 1.8053
3636.123  1.2001 0.766 0.831 1.3394 2.023 1.7568 0.724 0.8802 1.2141 1.3259
3655.413  1.2965 1.4458 1.943 1.8054 1.3242 0.94312 0.83 0.935748 1.2883 1.4871
3674.703  1.3565 1.2226 1.3079 0.99812 0.726 0.713 0.99076 1.2988 0.815 1.02467
3693.993  1.4402 1.4209 1.4099 1.4048 1.3607 1.2627 1.1931 1.2528 1.0367 0.818
3713.282  1.2813 1.1812 0.745 0.8363 1.01292 1.0865 1.1409 1.1311 1.4874 1.4418
3732.572  1.3519 1.5272 1.2254 1.5678 1.6925 1.0552 0.366 0.572 0.8486 1.2201
3751.862  1.7659 1.346 1.1047 0.9002 0.99656 1.1943 1.4822 1.3429 1.2006 1.6401
3771.152  0.97847 0.419 0.685 1.0656 1.1124 1.02875 1.4361 1.6846 1.5906 1.4932
3790.441  1.242 1.1502 1.6942 1.4511 0.99862 1.6822 1.78 1.2377 1.3795 1.4125
3809.731  1.02227 1.02753 1.1247 1.3834 1.218 0.665 1.00312 1.2463 1.2515 1.2106
3829.021  0.935797 1.0932 1.0971 1.1781 1.3312 1.5621 1.4955 1.4258 1.798 1.8373
3848.311  1.0333 0.8399 1.0788 1.1503 1.5864 1.3478 1.2386 1.0896 0.78 0.935725
3867.601  1.6178 1.5996 1.3688 1.4399 1.117 1.01601 1.3427 2.233 2.333 1.6834
3886.890  1.973 1.4002 0.8609 1.6446 1.02364 0.627 0.8569 0.65 0.561 0.8339
3906.180  1.3027 1.5661 1.7316 1.4551 1.2412 1.2712 1.2572 1.4363 0.98059 0.9141
3925.470  1.2769 0.805 0.631 1.0558 1.2256 1.056 0.8897 0.49 0.349 0.695
3944.760  1.4547 1.3081 1.0799 1.2922 1.4552 1.5977 1.286 1.5283 1.3915 0.653
3964.049  1.3542 1.509 1.012 1.6346 1.8135 1.4053 1.1857 0.829 0.746 1.1273
3983.339  0.745 0 0.8842 1.5476 1.1337 0.97362 0.8914 1.00951 1.0992 1.02878
##END=
