##TITLE=3,5-Difluoroacetophenone
##JCAMP-DX=4.24
##DATA TYPE=INFRARED SPECTRUM
##ORIGIN=EPA-IR VAPOR PHASE LIBRARY
##OWNER=SRD/NIST
Collection (C) 2003 copyright by the U.S. Secretary of Commerce
on behalf of the United States of America. All rights reserved.
##CAS REGISTRY NO=123577-99-1
##MOLFORM=C8H6F2O
##$NIST SOURCE=MSDC-IR
##STATE=gas
##XUNITS=1/CM
##YUNITS=ABSORBANCE
##XFACTOR=1.
##YFACTOR=0.001
##DELTAX=1.92898
##FIRSTX=549.8
##LASTX=4000.7
##FIRSTY=6.465
##MAXX=4000.7
##MINX=549.759
##MAXY=0.323805
##MINY=0
##NPOINTS=1790
##XYDATA=(X++(Y..Y))
549.759  6.465 8.315 10.565 13.395 14.735 16.805 18.195 18.645 19.345 19.245
569.049  17.305 15.105 13.435 10.405 8.175 6.725 5.555 4.805 3.585 2.815
588.339  3.775 4.635 5.575 7.525 9.035 12.445 17.415 22.225 29.335 38.095
607.628  43.785 45.565 47.215 47.485 44.435 41.835 39.125 32.575 23.685 15.655
626.918  10.225 8.155 7.845 7.225 6.065 5.305 5.235 5.805 6.015 5.895
646.208  5.425 4.955 5.165 5.485 5.735 5.945 7.135 9.035 10.755 13.145
665.498  16.095 18.505 20.075 23.205 29.415 36.455 38.845 35.395 30.115 25.915
684.787  22.745 19.675 16.695 13.695 10.995 8.345 6.265 4.825 3.715 2.925
704.077  2.345 1.995 1.755 1.5318 1.4396 1.6681 1.5369 1.0917 1.161 1.5161
723.367  1.5555 1.2214 1.1612 1.2018 1.0451 1.3289 1.7408 1.895 1.3213 0.411
742.657  0.327 0.502 0.269 0.318 0.634 0.604 0.643 0.79564 0.8852 1.1635
761.947  1.0031 0.53 0.83584 1.4358 1.3924 1.1161 1.2292 1.6707 1.915 1.7306
781.236  1.4492 1.6286 1.755 1.7379 1.905 1.935 1.6494 1.5125 1.0593 0.7043
800.526  1.7319 2.335 1.915 1.995 2.005 1.5931 2.145 2.355 2.625 3.055
819.816  3.455 3.635 3.825 3.905 3.605 5.025 5.745 6.395 7.895 9.765
839.106  11.605 13.865 18.415 24.465 30.425 36.375 42.615 48.285 54.255 62.825
858.395  79.365 100.085 97.415 78.865 74.125 77.835 81.685 82.705 79.525 75.035
877.685  72.195 68.885 64.735 60.295 53.615 44.235 34.535 26.895 21.315 17.515
896.975  14.615 12.855 11.345 9.395 7.725 6.795 6.345 6.205 5.935 5.275
916.265  5.115 5.115 5.045 4.945 4.915 4.575 4.465 4.145 4.095 5.125
935.555  6.055 6.435 7.185 8.355 9.925 12.675 15.555 18.825 22.435 25.595
954.844  28.795 31.915 34.575 36.495 37.565 38.345 38.095 37.065 36.155 34.655
974.134  32.375 30.165 28.965 29.625 30.065 30.545 33.345 36.515 39.495 43.905
993.424  48.665 51.685 52.895 53.185 52.145 51.145 50.035 46.585 42.285 37.085
1012.714  31.645 25.965 20.875 18.145 15.605 13.135 11.865 10.495 9.795 9.555
1032.003  7.375 6.395 7.265 6.465 5.735 6.315 5.215 4.095 4.715 4.785
1051.293  4.875 4.405 5.105 6.355 6.495 7.225 7.075 7.205 7.475 8.205
1070.583  8.205 8.045 9.365 9.085 8.605 9.645 10.695 11.125 11.855 12.165
1089.873  12.225 10.385 9.115 12.165 13.745 13.165 16.205 21.475 25.095 30.255
1109.163  37.635 47.615 60.155 76.735 100.525 127.275 149.375 161.245 156.995 145.765
1128.452  150.885 164.445 154.885 125.885 94.635 67.465 46.085 30.625 24.065 18.815
1147.742  14.685 13.665 11.535 10.805 10.695 9.975 8.735 8.625 9.845 10.155
1167.032  10.925 10.895 11.825 13.665 14.005 15.495 16.785 18.495 21.155 24.555
1186.322  29.585 35.135 41.965 49.455 59.275 68.915 74.355 77.795 79.975 79.555
1205.611  76.785 72.345 66.805 59.225 46.565 36.465 31.385 26.375 24.105 21.755
1224.901  17.965 16.945 13.845 10.235 9.955 8.315 6.865 6.025 5.175 4.925
1244.191  4.855 5.545 5.735 5.175 4.475 4.545 5.385 5.915 5.405 5.255
1263.481  6.335 7.455 8.645 9.545 9.605 10.275 11.425 11.705 12.205 12.945
1282.771  13.725 14.835 15.845 17.545 20.325 23.385 27.665 32.725 39.065 47.585
1302.060  58.175 72.215 90.835 114.395 142.805 175.765 211.335 246.165 277.135 301.465
1321.350  317.405 323.805 319.205 303.135 276.415 239.695 197.965 159.865 126.995 99.345
1340.640  78.395 64.175 56.075 53.075 54.705 60.345 69.065 79.045 88.185 95.235
1359.930  99.975 102.405 101.865 98.735 92.595 82.335 69.235 56.015 44.555 35.665
1379.219  29.145 24.615 21.305 18.875 17.275 16.205 15.535 15.105 15.015 15.125
1398.509  15.395 15.725 16.115 16.435 16.735 17.665 19.135 21.055 23.975 28.085
1417.799  33.545 41.165 50.835 62.235 75.285 89.555 104.125 117.095 127.435 134.305
1437.089  137.735 137.885 134.775 128.985 120.685 110.045 97.625 85.745 75.325 66.855
1456.378  60.355 55.305 52.155 49.535 46.205 42.285 38.465 34.985 31.385 27.905
1475.668  25.475 23.515 21.485 19.755 18.415 17.305 16.575 15.605 14.865 14.185
1494.958  13.675 13.445 13.185 13.335 13.825 14.465 14.895 15.085 15.165 15.425
1514.248  16.015 16.335 16.055 15.815 15.555 15.355 14.965 13.835 13.185 12.845
1533.538  12.445 12.315 12.145 11.945 12.005 12.185 12.705 13.495 14.265 15.305
1552.827  16.305 17.735 19.585 21.575 24.295 27.155 30.695 35.645 41.235 47.805
1572.117  55.275 63.295 72.865 83.585 94.475 105.525 115.955 125.855 135.005 142.595
1591.407  147.965 151.565 153.865 154.165 152.435 149.035 144.925 141.145 137.205 133.525
1610.697  130.175 126.415 121.665 116.205 110.585 103.685 95.405 86.755 78.065 69.195
1629.986  60.685 52.695 45.885 40.595 36.415 32.995 30.085 27.885 25.715 24.025
1649.276  22.575 20.965 20.005 19.635 19.545 19.225 18.375 17.795 17.865 18.085
1668.566  18.455 19.095 19.665 19.945 20.155 20.545 21.015 21.795 23.395 25.565
1687.856  28.465 33.375 41.045 50.975 65.065 83.635 104.775 128.535 148.665 164.305
1707.146  173.825 178.705 180.415 178.575 170.185 153.435 129.705 105.605 84.175 67.355
1726.435  54.715 45.075 37.745 32.915 29.445 26.785 25.015 23.685 23.075 22.815
1745.725  23.145 23.535 23.605 23.405 22.615 21.485 20.085 18.685 17.205 15.725
1765.015  14.275 12.575 10.985 9.655 8.445 7.625 6.875 6.075 5.375 4.815
1784.305  4.345 4.045 3.795 3.405 3.195 3.035 3.135 3.135 2.945 3.025
1803.594  3.005 2.945 2.885 2.645 2.505 2.465 2.505 2.605 2.495 2.385
1822.884  2.505 2.565 2.275 2.125 1.945 2.035 2.245 2.045 2.125 2.125
1842.174  1.885 1.985 1.895 1.825 1.7311 1.6347 1.835 1.925 1.925 1.925
1861.464  2.015 2.055 2.125 2.305 2.465 2.445 2.425 2.585 2.735 2.785
1880.754  2.645 2.175 2.065 2.305 2.245 2.035 2.005 2.105 2.135 1.805
1900.043  1.5213 1.5237 1.5314 1.6709 1.5151 1.5355 1.7232 1.6747 1.5615 1.4252
1919.333  1.5377 1.6569 1.775 1.7445 1.7398 2.035 2.205 2.015 1.885 1.905
1938.623  1.755 1.4972 1.4606 1.6084 1.6348 1.5192 1.4789 1.6616 1.6799 1.6636
1957.913  1.795 1.865 2.015 2.025 1.765 1.6907 1.965 2.135 2.065 1.975
1977.202  2.045 2.115 2.105 2.105 2.015 2.065 2.155 2.185 2.235 2.285
1996.492  2.455 2.415 2.315 2.545 2.595 2.405 2.565 2.755 2.615 2.395
2015.782  2.155 1.855 1.4992 1.3648 1.3147 1.3302 1.3747 1.3341 1.5149 1.5298
2035.072  1.388 1.4499 1.3599 1.3177 1.3442 1.2798 1.3043 1.1587 1.24 1.3848
2054.362  1.4294 1.5096 1.5338 1.6663 1.7072 1.845 1.935 1.885 1.895 2.095
2073.651  2.375 2.245 2.295 2.415 2.255 2.345 2.345 2.305 2.395 2.255
2092.941  2.085 2.125 2.025 1.815 1.935 1.895 1.668 1.6904 2.065 2.155
2112.231  1.875 1.985 1.975 1.755 1.835 2.015 1.955 1.835 1.945 2.025
2131.521  1.7232 1.7215 1.755 1.755 1.935 1.795 1.6861 1.6928 1.6731 1.7344
2150.810  1.745 1.825 1.845 1.6271 1.654 1.805 1.785 1.623 1.5548 1.6093
2170.100  1.785 1.855 1.6344 1.5188 1.4792 1.4976 1.4626 1.4414 1.4619 1.3299
2189.390  1.403 1.4819 1.6169 1.5817 1.4727 1.2931 1.2252 1.4518 1.4804 1.5741
2208.680  1.4758 1.3612 1.457 1.3848 1.4682 1.438 1.2467 1.2751 1.465 1.7177
2227.970  1.6389 1.6519 1.745 1.865 1.875 1.795 1.825 1.694 1.6841 1.835
2247.259  1.7395 1.5285 1.5984 1.7299 1.5571 1.4347 1.2295 0.9468 0.9161 0.9101
2266.549  0.9745 1.241 1.5018 1.54 1.479 1.4615 1.815 1.704 1.5141 1.6235
2285.839  1.6607 1.875 1.965 1.915 2.075 2.065 2.005 2.095 2.195 2.265
2305.129  2.145 2.095 2.175 2.215 2.325 2.745 2.825 2.705 2.715 2.645
2324.418  2.455 2.355 2.395 2.245 2.065 2.125 1.975 1.845 2.005 1.845
2343.708  1.765 1.955 1.875 1.6561 1.706 1.6446 1.4037 1.4239 1.5396 1.2743
2362.998  1.344 1.5722 1.6185 1.5772 1.4569 1.2374 1.0873 1.3663 1.3887 1.3629
2382.288  1.4552 1.612 1.5334 1.357 1.5238 1.6368 1.775 1.905 1.925 1.6539
2401.578  1.5467 1.6653 1.6871 1.875 1.995 1.875 1.765 1.755 1.755 2.015
2420.867  2.095 2.685 3.215 3.055 2.775 2.775 2.915 2.785 3.035 3.435
2440.157  3.365 3.195 3.485 3.515 3.145 2.905 2.695 2.635 2.675 2.295
2459.447  2.185 2.225 1.865 1.795 1.845 1.915 1.875 1.755 1.4768 1.497
2478.737  1.875 1.915 1.915 1.7254 1.5884 1.7411 1.6063 1.3405 1.2834 1.4787
2498.026  1.4026 1.1737 1.4748 1.5832 1.5835 1.4628 1.3852 1.3618 1.4333 1.3908
2517.316  1.1749 1.2633 1.1699 1.5383 1.7343 1.4582 1.5799 1.6447 1.7033 1.785
2536.606  1.5305 1.6888 1.915 1.835 1.7194 1.4631 1.7404 2.025 1.925 1.935
2555.896  2.065 2.345 2.405 2.415 2.795 2.635 2.225 2.295 2.485 2.325
2575.186  1.805 1.539 1.845 2.275 2.485 2.435 2.385 2.235 1.688 1.5995
2594.475  1.905 2.115 1.955 1.5844 1.815 1.915 1.905 2.155 2.135 1.965
2613.765  2.005 2.255 2.045 1.5728 1.4639 1.7448 1.965 1.6172 1.3941 1.7069
2633.055  2.055 2.395 2.245 2.035 2.185 2.225 2.275 2.095 1.935 1.985
2652.345  2.185 2.385 2.145 1.865 1.785 1.6775 1.664 1.6285 1.44 1.3856
2671.634  1.5364 1.4822 1.2683 1.1765 1.1836 1.5492 1.755 1.5075 1.1452 1.1105
2690.924  1.3184 1.3008 1.3051 1.5735 1.5726 1.0094 1.0356 1.5167 1.68 1.506
2710.214  1.2753 1.451 1.498 1.093 1.1928 1.4328 1.0155 1.1612 1.6916 1.652
2729.504  1.3962 1.3501 1.2002 1.3311 1.875 1.995 1.795 1.6669 1.5628 1.5223
2748.794  1.596 1.7411 1.795 1.6038 1.5848 1.7028 1.5141 1.5307 1.6238 1.4797
2768.083  1.3749 1.4722 1.721 1.6752 1.2999 1.1194 1.1332 1.2753 1.6539 1.6275
2787.373  1.2855 1.281 1.297 1.2584 1.3102 1.2607 1.2824 1.2484 1.3516 1.5958
2806.663  1.855 1.805 1.6181 1.7391 1.3942 1.0083 1.0655 1.0633 1.382 1.4323
2825.953  1.0501 1.602 1.845 1.4827 1.6693 1.7177 1.815 2.105 1.955 1.6516
2845.242  1.775 1.765 1.4934 1.3819 1.68 2.015 1.6105 1.4547 1.5688 1.4055
2864.532  1.4626 1.815 1.925 1.875 1.865 1.4146 1.4987 1.885 1.3724 1.3174
2883.822  1.5497 1.915 2.225 2.405 2.325 2.105 2.475 2.625 2.535 2.615
2903.112  2.435 2.445 2.685 2.425 2.285 2.365 2.465 2.995 2.965 2.745
2922.401  3.125 3.105 3.365 3.865 4.485 4.665 4.395 4.595 4.745 4.345
2941.691  4.105 4.225 4.155 3.905 3.615 3.595 3.345 2.935 3.235 3.505
2960.981  3.495 3.595 4.135 4.515 4.395 4.565 4.525 4.635 5.385 5.665
2980.271  5.435 5.035 4.785 4.585 4.225 4.135 4.135 3.965 3.985 4.085
2999.561  4.485 4.855 5.075 5.775 6.845 7.445 8.155 8.585 8.475 8.785
3018.850  8.325 7.665 7.355 6.645 5.985 5.595 5.325 4.855 4.175 4.135
3038.140  4.235 4.235 3.965 3.575 3.315 3.215 3.485 3.905 3.765 3.625
3057.430  3.895 4.125 4.165 4.455 4.535 4.405 4.945 5.165 5.365 5.765
3076.720  5.615 5.375 5.825 6.235 6.835 7.395 8.535 9.855 10.245 10.335
3096.009  10.675 11.225 10.635 9.745 8.985 8.105 7.065 5.255 4.295 4.565
3115.299  4.225 3.195 3.035 3.155 2.595 2.415 2.465 2.425 2.125 2.015
3134.589  2.225 2.165 1.602 1.3882 1.4243 1.4904 1.327 0.9818 1.2942 1.7211
3153.879  1.7209 1.4992 1.2338 1.2642 1.5878 1.4249 1.3409 1.258 1.6058 2.015
3173.169  1.945 1.975 1.4249 0.8655 1.2505 1.795 1.855 1.6754 1.5771 1.349
3192.458  1.4591 1.765 1.6271 0.8544 0.604 1.1826 1.475 1.795 1.6111 1.4428
3211.748  1.765 1.6257 0.9818 0.9766 1.1983 1.6317 1.6734 1.0553 1.0109 1.0277
3231.038  0.9316 1.1691 1.4209 1.1484 0.9174 1.0235 0.9364 0.9007 1.5018 2.255
3250.328  1.6281 0.80551 1.1749 1.1739 1.0661 1.6631 1.5248 1.0329 0.9287 0.81845
3269.617  0.8652 1.0884 1.3477 1.4231 1.4299 0.9716 0.609 0.026 0.114 1.151
3288.907  1.1418 1.2818 1.4385 1.2086 1.4664 1.5968 1.1337 0.80897 1.004 1.0861
3308.197  1.1578 1.1225 0.968 0.9772 0.8692 1.1299 1.7106 2.165 1.885 1.6447
3327.487  1.5435 1.3983 1.1343 1.003 1.4143 1.2827 1.3941 1.1095 1.0563 1.1478
3346.777  1.2629 1.4556 1.6032 1.875 1.5865 1.1985 1.426 1.7163 1.6729 1.6246
3366.066  1.5025 1.765 1.805 1.5646 1.5431 1.6041 1.815 2.035 1.835 2.285
3385.356  2.865 3.045 3.225 3.275 3.325 3.805 4.355 4.545 4.925 5.055
3404.646  4.995 4.875 4.665 4.735 4.145 3.065 3.105 3.105 2.545 2.315
3423.936  2.245 1.845 2.075 2.615 2.235 1.4775 1.3814 1.875 2.155 1.845
3443.225  1.3889 1.4416 1.7359 2.035 2.095 2.145 1.5316 0.9638 1.1326 1.1836
3462.515  1.297 1.1521 0.8728 1.1227 1.026 0.82135 1.2104 1.6388 1.0112 0.394
3481.805  1.052 1.1437 1.269 1.4542 1.2243 1.2388 1.2421 1.5305 1.474 1.3746
3501.095  1.3697 1.4142 1.1029 0.185 0.8629 1.2925 0.9647 1.0539 1.0435 0.9233
3520.385  1.1492 1.7444 1.3839 1.4452 1.775 1.795 1.5464 0.8524 0.564 0.384
3539.674  0.368 0.81193 1.0562 0.627 0.491 0.9868 1.4203 1.5964 1.6929 1.5574
3558.964  0.76655 0.538 0.7288 1.4923 1.384 0.7553 1.0604 0.9327 0.9699 0.9927
3578.254  0.586 0.504 0.9289 0.8826 0.442 0.488 0.8955 1.1349 1.5233 1.745
3597.544  1.6768 1.5009 1.0839 0.474 0.29 1.0682 1.2568 0.7318 0.9879 1.5172
3616.833  1.718 1.4578 0.74283 0.335 1.1948 1.4877 1.0756 0.9639 0.52 0
3636.123  0.168 0.83642 1.0312 0.9289 0.286 0.356 1.1439 1.2042 1.2341 1.3732
3655.413  0.8889 1.1634 1.5415 1.0342 1.2263 1.5821 1.2031 0.8486 0.746684 0.585
3674.703  0.9028 0.7309 0.8594 1.639 1.1116 0.6757 1.0841 1.4223 1.1486 0.9171
3693.993  1.2281 1.3904 1.2411 0.7325 0.438 0.369 0.491 1.1096 1.7082 1.5963
3713.282  1.4206 1.0522 0.9134 1.2312 1.0958 0.9511 0.79596 0.8477 0.9459 0.63
3732.572  0.9916 1.4705 1.5254 1.71 1.2917 0.8891 1.0055 1.1858 0.496 0.573
3751.862  1.4862 1.619 1.7193 1.6571 0.8728 1.2864 2.045 1.3131 0.6908 0.8735
3771.152  1.7282 1.815 1.2652 0.8373 0.343 0.485 1.1537 1.5406 1.1794 0.721
3790.441  0.9317 0.76264 0.645 0.749504 0.6565 1.0047 1.3135 0.6647 0.256 0.80366
3809.731  0.8815 0.9995 1.6847 1.5524 0.8992 1.093 1.3912 0.82159 0.78646 1.4292
3829.021  1.2498 0.78977 1.0851 1.496 1.0187 0.7178 0.64 0.8623 1.3986 1.7121
3848.311  1.7075 1.0471 0.9221 0.734 0.303 0.724 0.9325 0.78273 1.1058 1.5208
3867.601  0.8605 0.523 1.0373 1.579 1.885 1.975 1.875 1.2575 0.9103 1.0361
3886.890  1.2695 1.0476 1.1505 0.993 0.667 0.7005 0.31 0.489 0.9383 1.0882
3906.180  0.532 0.668 1.0805 0.9087 1.4755 1.975 1.3664 0.625 0.59 0.559
3925.470  0.9276 1.2656 1.3717 1.3842 1.5569 1.6617 1.323 1.4526 1.5016 1.3225
3944.760  1.2636 1.7297 1.7083 1.2468 1.765 1.5593 1.1922 1.6653 1.3418 1.1204
3964.049  1.2116 1.1317 1.2734 1.3238 0.871 1.0864 1.1202 0.9587 1.4076 1.2131
3983.339  0.9309 0.519 0.644 1.1977 1.1567 1.2685 1.5797 0.9165 0.616 1.0916
##END=
