##TITLE=Succinic acid imide
##JCAMP-DX=4.24
##DATA TYPE=INFRARED SPECTRUM
##ORIGIN=NIST Mass Spectrometry Data Center
##OWNER=NIST Standard Reference Data Program
Collection (C) 2003 copyright by the U.S. Secretary of Commerce
on behalf of the United States of America. All rights reserved.
##CAS REGISTRY NO=123-56-8
##MOLFORM=C4H5NO2
##$NIST SOURCE=MSDC-IR
##SPECTROMETER/DATA SYSTEM=HP-GC/MS/IRD
##STATE=gas
##XUNITS=1/CM
##YUNITS=ABSORBANCE
##XFACTOR=1.0
##YFACTOR=0.000001500
##DELTAX=4.0
##FIRSTX=550.0
##LASTX=3846.0
##FIRSTY=0.000435
##MAXX=3846
##MINX=550
##MAXY=0.015
##MINY=0
##NPOINTS=825
##XYDATA=(X++(Y..Y))
550.0 290 279 223 161 124 101 66 83 145 193
590.0 281 354 367 427 483 544 610 642 686 779
630.0 949 1162 1301 1396 1467 1427 1331 1205 1040 866
670.0 720 588 487 385 296 263 216 185 179 163
710.0 145 103 68 58 65 52 33 55 76 57
750.0 52 50 55 80 67 41 46 58 59 46
790.0 47 51 53 66 91 106 122 144 130 117
830.0 123 124 116 116 116 94 87 96 98 107
870.0 153 251 333 378 424 456 466 467 413 314
910.0 239 195 163 149 135 113 92 77 53 37
950.0 37 29 19 21 41 55 58 75 82 78
990.0 74 79 95 93 81 73 63 62 55 56
1030.0 81 85 56 52 73 86 97 110 108 97
1070.0 98 94 79 87 117 129 133 148 189 246
1110.0 330 460 659 915 1180 1465 1767 2138 2497 2717
1150.0 2687 2566 2317 2029 1695 1192 773 525 399 337
1190.0 305 320 351 365 390 446 490 491 476 468
1230.0 455 447 420 382 359 338 312 302 326 376
1270.0 454 545 650 745 799 824 834 838 837 857
1310.0 918 1053 1273 1520 1726 1864 1934 1881 1723 1540
1350.0 1287 1000 759 586 453 361 298 249 193 153
1390.0 138 122 101 85 71 67 73 89 124 174
1430.0 212 226 201 171 182 192 165 118 79 53
1470.0 33 25 29 23 19 19 14 10 10 2
1510.0 17 33 30 35 50 75 86 76 80 96
1550.0 118 131 127 142 151 146 129 104 96 80
1590.0 57 47 52 48 40 40 33 37 56 53
1630.0 44 39 50 59 51 52 71 96 113 129
1670.0 141 159 196 225 289 395 531 706 916 1151
1710.0 1370 1545 1671 1767 1870 1996 2208 2520 2973 3629
1750.0 4494 5507 6678 8020 9206 9921 10000 9543 8818 8016
1790.0 6836 4922 3098 2024 1554 1325 1182 1088 988 852
1830.0 699 557 433 344 280 224 189 165 148 143
1870.0 135 126 127 126 122 120 112 103 101 94
1910.0 82 89 100 99 97 93 92 100 109 104
1950.0 96 83 71 65 61 62 65 57 47 45
1990.0 52 56 43 36 38 30 32 33 30 21
2030.0 14 15 17 20 28 36 32 23 18 16
2070.0 20 19 13 19 27 27 21 23 30 18
2110.0 5 18 29 38 33 20 17 24 32 26
2150.0 22 25 33 37 32 28 26 29 37 39
2190.0 29 21 27 33 31 34 39 34 36 39
2230.0 47 44 46 42 34 33 31 30 24 29
2270.0 42 33 30 32 28 24 31 34 24 24
2310.0 20 21 31 29 25 28 30 30 31 31
2350.0 35 35 37 33 33 39 40 47 50 48
2390.0 54 58 54 43 37 42 48 46 40 42
2430.0 42 50 47 41 37 39 51 56 61 64
2470.0 65 58 56 56 54 55 48 43 42 44
2510.0 41 42 49 43 26 32 46 43 39 34
2550.0 34 32 31 37 40 35 36 42 42 40
2590.0 42 48 54 53 42 37 43 54 52 47
2630.0 48 60 70 65 53 57 65 64 60 65
2670.0 71 63 61 60 52 44 43 44 43 44
2710.0 43 45 43 39 42 54 55 49 52 51
2750.0 50 53 53 54 54 56 54 52 56 52
2790.0 53 64 63 62 64 62 62 63 62 62
2830.0 63 63 67 73 64 50 48 49 44 38
2870.0 41 55 59 53 50 46 40 35 29 29
2910.0 30 25 22 21 6 0 10 35 82 135
2950.0 184 206 217 219 211 203 171 154 158 161
2990.0 170 176 160 135 122 120 113 88 70 67
3030.0 63 60 63 66 65 66 74 79 69 65
3070.0 71 80 73 57 68 73 75 81 79 73
3110.0 77 89 97 92 89 91 90 84 79 75
3150.0 75 77 73 61 53 55 55 54 57 65
3190.0 63 57 63 66 71 79 69 50 40 51
3230.0 61 56 51 62 65 56 48 50 66 71
3270.0 59 60 65 63 60 56 61 51 38 44
3310.0 47 47 54 52 61 65 59 51 44 54
3350.0 49 38 43 45 52 63 71 65 59 58
3390.0 51 55 67 77 83 78 92 132 161 203
3430.0 288 395 506 617 723 783 788 773 742 718
3470.0 636 493 351 253 198 148 115 102 92 93
3510.0 88 76 79 102 124 131 124 115 125 141
3550.0 140 127 131 140 135 138 132 105 93 83
3590.0 81 73 44 34 46 42 41 44 50 47
3630.0 34 35 47 45 38 24 31 50 45 31
3670.0 24 24 26 34 29 16 27 30 28 35
3710.0 25 27 39 44 25 27 34 19 29 35
3750.0 20 14 20 21 17 19 29 28 32 42
3790.0 28 16 10 6 18 33 34 35 38 37
3830.0 44 39 22 8 19
##END=
