##TITLE=m-Phenylene diisocyanate
##JCAMP-DX=4.24
##DATA TYPE=INFRARED SPECTRUM
##ORIGIN=EPA-IR VAPOR PHASE LIBRARY
##OWNER=SRD/NIST
Collection (C) 2003 copyright by the U.S. Secretary of Commerce
on behalf of the United States of America. All rights reserved.
##CAS REGISTRY NO=123-61-5
##MOLFORM=C8H4N2O2
##$NIST SOURCE=MSDC-IR
##STATE=gas
##XUNITS=1/CM
##YUNITS=ABSORBANCE
##XFACTOR=1.
##YFACTOR=0.001
##DELTAX=1.92898
##FIRSTX=549.8
##LASTX=4000.7
##FIRSTY=3.803
##MAXX=4000.7
##MINX=549.759
##MAXY=1.34465
##MINY=0
##NPOINTS=1790
##XYDATA=(X++(Y..Y))
549.759  3.803 4.203 4.473 5.363 6.053 6.573 7.373 8.273 9.403 10.553
569.049  11.383 11.903 12.463 13.253 13.693 13.743 13.633 13.373 13.543 13.753
588.339  13.473 13.293 13.523 13.783 14.193 14.953 15.863 16.613 17.473 18.583
607.628  19.373 19.933 20.463 20.593 20.273 19.773 19.323 18.643 17.953 17.393
626.918  16.563 15.763 15.353 15.153 14.833 14.453 14.263 14.103 14.313 14.583
646.208  14.553 14.683 14.973 15.133 15.423 15.643 15.643 16.173 16.653 17.093
665.498  18.183 19.343 20.183 21.223 22.673 24.913 27.903 27.483 23.373 20.443
684.787  18.653 16.573 14.233 12.023 9.963 8.163 6.843 5.953 5.373 4.983
704.077  4.713 4.593 4.723 4.813 4.713 4.693 4.763 4.843 4.823 4.763
723.367  4.693 4.613 4.363 4.063 3.933 3.623 3.343 3.143 2.903 2.733
742.657  2.743 2.673 2.443 2.533 2.783 2.953 3.253 3.883 4.963 6.593
761.947  8.523 10.973 14.103 17.583 21.203 25.053 29.063 33.313 37.413 39.523
781.236  38.033 34.113 29.963 26.233 22.763 18.923 15.183 11.873 8.893 6.623
800.526  5.353 4.663 4.073 3.733 3.563 3.603 3.713 3.893 3.973 4.133
819.816  4.453 4.593 4.623 4.583 4.763 4.883 4.963 5.023 5.213 5.333
839.106  5.433 5.763 6.153 6.823 7.743 8.833 10.273 12.383 15.073 18.123
858.395  21.703 26.223 31.353 37.203 43.493 49.923 55.763 59.953 62.743 63.903
877.685  63.193 60.823 56.783 50.903 43.743 36.163 28.783 22.393 17.223 13.403
896.975  10.543 8.123 6.493 5.493 4.633 4.043 3.613 3.403 3.193 2.843
916.265  2.743 2.693 2.403 2.123 1.943 1.893 1.783 1.553 1.623 1.573
935.555  1.453 1.363 1.0741 1.0192 1.0599 0.9833 0.834 0.6861 0.5322 0.4063
954.844  0.4085 0.4175 0.4964 0.472 0.4463 0.4466 0.4587 0.439 0.363 0.3172
974.134  0.19159 0.1588 0.23112 0.2358 0.1078 0 0.17652 0.4152 0.43 0.2984
993.424  0.2798 0.282 0.294 0.3595 0.2666 0.14871 0.2565 0.4004 0.3204 0.22693
1012.714  0.2598 0.21706 0.412 0.5843 0.5569 0.7369 0.737 1.0364 1.443 1.473
1032.003  1.333 1.373 1.283 1.153 1.183 1.0181 0.9468 1.0433 0.8001 0.7063
1051.293  1.0517 1.1285 1.193 1.623 2.303 2.913 3.703 4.663 5.663 6.753
1070.583  8.133 9.293 10.373 12.143 14.713 17.973 22.093 26.853 30.453 32.603
1089.873  33.453 32.873 31.523 28.823 24.213 18.903 14.143 10.823 8.773 7.433
1109.163  6.293 5.493 5.253 5.173 5.163 5.253 5.763 6.223 6.233 6.403
1128.452  6.803 7.193 7.553 7.563 7.603 7.503 7.623 8.003 7.823 7.833
1147.742  8.073 8.133 8.273 8.493 8.573 8.803 9.173 9.073 8.843 8.863
1167.032  8.943 8.963 8.713 8.243 8.003 7.893 7.553 7.353 6.953 6.373
1186.322  6.213 5.933 5.593 5.243 4.943 4.903 4.483 4.033 3.903 3.533
1205.611  3.383 3.283 3.173 3.223 3.193 3.173 3.173 3.353 3.353 3.143
1224.901  2.913 3.043 3.273 3.133 3.003 2.793 2.333 2.083 2.053 2.213
1244.191  2.173 2.193 2.593 2.843 3.093 3.353 3.543 3.673 3.813 3.933
1263.481  3.703 3.313 2.853 2.593 2.333 1.863 1.673 1.703 1.653 1.613
1282.771  1.513 1.583 1.723 1.773 1.843 1.853 1.833 1.893 2.013 2.043
1302.060  2.033 2.023 1.903 1.843 1.873 1.773 1.703 1.673 1.673 1.713
1321.350  1.773 1.823 1.903 2.023 2.123 2.223 2.293 2.273 2.193 2.153
1340.640  2.093 2.003 1.953 1.833 1.793 1.753 1.683 1.713 1.723 1.753
1359.930  1.813 1.833 1.903 1.943 1.983 2.043 2.013 2.033 2.093 2.123
1379.219  2.143 2.163 2.233 2.273 2.363 2.483 2.533 2.593 2.643 2.693
1398.509  2.773 2.883 2.963 3.003 3.043 3.123 3.183 3.293 3.443 3.623
1417.799  3.873 4.153 4.403 4.723 5.063 5.373 5.723 5.993 6.363 6.813
1437.089  7.163 7.473 7.843 8.323 8.863 9.473 10.103 10.703 11.293 11.853
1456.378  12.273 12.573 12.713 12.743 12.793 12.873 12.953 13.133 13.463 14.103
1475.668  14.993 16.043 17.373 18.963 20.753 22.913 25.493 28.393 31.603 34.983
1494.958  38.413 41.813 44.853 47.543 49.593 50.833 51.173 50.563 49.203 47.073
1514.248  44.243 40.743 36.783 32.843 28.903 25.573 22.723 20.323 18.463 17.153
1533.538  16.343 15.913 15.703 15.773 16.213 16.803 17.553 18.543 19.593 20.643
1552.827  21.673 22.733 23.833 25.043 26.243 27.483 29.283 31.693 34.573 38.233
1572.117  42.703 47.893 54.183 61.243 68.473 76.273 84.433 93.133 102.243 111.443
1591.407  120.193 128.303 135.353 141.203 145.813 149.083 151.003 151.833 151.543 149.753
1610.697  146.043 139.703 130.793 118.973 105.253 90.663 75.203 59.923 46.473 35.603
1629.986  27.383 21.583 17.453 14.423 12.063 10.293 8.893 7.843 6.953 6.163
1649.276  5.453 4.883 4.393 3.883 3.423 3.043 2.743 2.513 2.303 2.103
1668.566  1.933 1.873 1.773 1.633 1.503 1.413 1.333 1.313 1.363 1.233
1687.856  1.0519 1.0526 1.0482 1.0179 1.0789 1.0865 0.9985 0.8931 0.927 0.9969
1707.146  1.0468 1.0908 1.153 1.223 1.273 1.333 1.323 1.383 1.473 1.503
1726.435  1.603 1.713 1.723 1.703 1.753 1.833 1.843 1.803 1.773 1.793
1745.725  1.853 1.883 1.833 1.803 1.763 1.773 1.863 1.953 1.993 1.983
1765.015  2.033 2.093 2.113 2.113 2.063 1.943 1.843 1.823 1.823 1.733
1784.305  1.603 1.493 1.443 1.403 1.343 1.293 1.283 1.253 1.223 1.243
1803.594  1.263 1.293 1.313 1.323 1.253 1.213 1.243 1.273 1.273 1.223
1822.884  1.213 1.223 1.223 1.253 1.393 1.493 1.543 1.663 1.813 1.933
1842.174  2.063 2.183 2.243 2.183 2.113 2.073 1.963 1.823 1.623 1.473
1861.464  1.423 1.333 1.223 1.183 1.143 1.193 1.223 1.193 1.193 1.183
1880.754  1.1303 1.0907 1.1026 1.095 1.0598 1.0317 1.0558 1.0861 1.0234 0.9948
1900.043  1.0461 1.1013 1.1175 1.143 1.233 1.323 1.413 1.543 1.743 1.913
1919.333  2.023 2.143 2.233 2.313 2.383 2.333 2.243 2.123 1.963 1.783
1938.623  1.593 1.393 1.213 1.1003 1.0161 0.9759 0.9179 0.8924 0.9272 0.9712
1957.913  0.9969 1.0402 1.1232 1.163 1.153 1.143 1.143 1.183 1.303 1.373
1977.202  1.363 1.343 1.333 1.383 1.383 1.373 1.393 1.413 1.473 1.533
1996.492  1.513 1.513 1.553 1.633 1.663 1.643 1.633 1.693 1.763 1.853
2015.782  1.883 1.853 1.943 2.023 2.093 2.183 2.213 2.323 2.413 2.453
2035.072  2.553 2.673 2.853 3.003 3.063 3.193 3.313 3.393 3.543 3.683
2054.362  3.833 3.943 4.063 4.283 4.413 4.523 4.703 4.933 5.173 5.383
2073.651  5.603 5.783 5.923 6.033 6.103 6.233 6.293 6.313 6.373 6.463
2092.941  6.583 6.663 6.833 7.073 7.313 7.583 7.893 8.283 8.733 9.223
2112.231  9.763 10.343 10.933 11.553 12.313 13.193 14.103 15.063 16.133 17.363
2131.521  18.663 20.063 21.623 23.293 25.073 26.913 28.863 30.943 33.053 35.123
2150.810  37.163 39.183 41.133 42.873 44.423 45.783 46.923 48.013 48.953 49.743
2170.100  50.563 51.453 52.453 53.643 55.063 56.813 58.913 61.283 64.023 67.223
2189.390  70.773 74.793 79.363 84.423 90.053 96.203 102.823 109.943 117.423 125.203
2208.680  133.353 141.873 150.683 159.803 169.263 179.023 189.323 199.993 211.063 222.813
2227.970  235.153 248.473 263.293 279.623 298.013 319.493 344.663 374.403 409.733 452.093
2247.259  503.013 563.733 635.873 720.383 816.943 922.873 1033.09 1139.64 1231.83 1299.63
2266.549  1337.25 1344.65 1326.51 1283.56 1214.98 1124.58 1022.6 921.913 828.753 744.193
2285.839  666.743 594.983 529.483 470.813 418.753 373.723 335.743 304.073 277.833 255.973
2305.129  237.563 221.723 207.813 195.533 184.543 174.543 165.313 156.753 148.883 141.593
2324.418  134.873 129.013 123.963 119.403 115.323 111.803 108.623 105.663 102.903 100.463
2343.708  98.373 96.473 94.853 93.633 92.753 92.283 92.213 92.223 92.413 92.673
2362.998  92.613 92.213 91.433 89.903 87.623 84.553 80.693 76.163 71.113 65.693
2382.288  60.183 54.803 49.653 44.863 40.463 36.663 33.443 30.623 28.203 26.033
2401.578  24.183 22.703 21.183 19.673 18.413 17.263 16.153 15.103 14.213 13.523
2420.867  12.823 12.103 11.413 10.823 10.343 9.823 9.383 9.023 8.653 8.323
2440.157  8.103 7.923 7.683 7.493 7.313 7.153 7.073 6.963 6.783 6.713
2459.447  6.653 6.483 6.283 6.173 6.023 5.803 5.593 5.393 5.133 4.793
2478.737  4.533 4.313 4.063 3.793 3.543 3.383 3.223 3.133 2.933 2.713
2498.026  2.563 2.383 2.293 2.283 2.233 2.143 2.073 2.103 2.083 1.953
2517.316  1.843 1.813 1.793 1.653 1.573 1.563 1.493 1.443 1.413 1.393
2536.606  1.363 1.353 1.423 1.413 1.323 1.393 1.423 1.413 1.503 1.513
2555.896  1.483 1.483 1.543 1.713 1.703 1.573 1.613 1.703 1.773 1.773
2575.186  1.793 1.823 1.753 1.713 1.833 1.873 1.863 1.743 1.633 1.663
2594.475  1.643 1.543 1.513 1.473 1.353 1.323 1.343 1.283 1.173 1.153
2613.765  1.153 1.1012 1.0354 1.0145 0.9907 1.0056 1.0408 0.9654 0.9645 1.0038
2633.055  0.9849 0.9988 1.0035 0.9607 0.9158 0.9322 1.06 1.0737 1.028 1.069
2652.345  1.1254 1.193 1.213 1.193 1.243 1.323 1.333 1.343 1.363 1.473
2671.634  1.593 1.683 1.753 1.813 1.903 2.063 2.223 2.263 2.363 2.543
2690.924  2.593 2.583 2.573 2.643 2.733 2.793 2.843 2.923 3.003 3.023
2710.214  3.003 3.003 2.973 3.053 3.013 2.833 2.873 2.863 2.863 2.873
2729.504  2.723 2.573 2.593 2.593 2.543 2.593 2.573 2.553 2.413 2.263
2748.794  2.313 2.373 2.233 2.093 2.063 1.993 1.843 1.743 1.723 1.573
2768.083  1.423 1.423 1.493 1.453 1.333 1.313 1.313 1.213 1.273 1.273
2787.373  1.173 1.143 1.143 1.0787 0.9893 1.0147 1.09 1.0228 1.0225 1.0651
2806.663  1.0383 1.1065 1.153 1.132 0.9328 0.9189 1.133 1.0534 0.9537 1.0337
2825.953  1.0744 1.002 0.994 0.9745 0.952 0.9774 0.9785 1.0417 1.017 0.9954
2845.242  1.063 0.9553 1.0068 1.163 1.1179 1.1084 1.1079 1.143 1.1009 0.9129
2864.532  0.9003 1.0183 1.1182 1.0808 1.0582 1.173 1.283 1.263 1.173 1.1224
2883.822  1.143 1.243 1.353 1.363 1.393 1.523 1.553 1.543 1.643 1.723
2903.112  1.823 1.993 1.953 2.003 2.193 2.343 2.413 2.533 2.593 2.563
2922.401  2.603 2.473 2.313 2.373 2.493 2.493 2.523 2.483 2.393 2.453
2941.691  2.483 2.363 2.363 2.443 2.433 2.393 2.383 2.353 2.363 2.533
2960.981  2.553 2.493 2.553 2.703 2.853 2.943 2.973 3.143 3.363 3.483
2980.271  3.583 3.593 3.583 3.573 3.463 3.463 3.543 3.503 3.383 3.203
2999.561  3.113 3.033 2.863 2.753 2.583 2.433 2.363 2.193 1.933 1.893
3018.850  1.893 1.723 1.683 1.703 1.563 1.463 1.483 1.473 1.413 1.453
3038.140  1.583 1.673 1.763 1.893 2.043 2.223 2.513 2.753 3.083 3.643
3057.430  4.123 4.503 5.013 5.673 6.213 6.933 7.573 7.873 8.053 8.173
3076.720  8.203 7.933 7.563 7.053 6.433 5.873 5.423 4.853 4.053 3.453
3096.009  3.123 2.913 2.683 2.523 2.343 2.243 2.153 2.053 2.003 1.963
3115.299  2.003 2.053 2.043 2.153 2.243 2.263 2.353 2.553 2.863 3.103
3134.589  3.213 3.463 3.743 3.883 4.133 4.393 4.663 4.933 4.933 4.823
3153.879  4.723 4.743 4.743 4.483 4.273 4.043 3.753 3.473 3.043 2.843
3173.169  2.643 2.443 2.363 2.153 2.003 1.903 1.703 1.643 1.603 1.493
3192.458  1.303 1.0903 1.153 1.0508 0.9763 1.0026 0.8497 0.8756 0.9515 0.8418
3211.748  0.732 0.741 0.7119 0.5306 0.4155 0.3902 0.4662 0.5213 0.5472 0.5902
3231.038  0.5126 0.4814 0.4672 0.4774 0.4823 0.4442 0.5322 0.5614 0.5264 0.4146
3250.328  0.3757 0.37 0.2634 0.321 0.3147 0.3218 0.2688 0.2703 0.417 0.4199
3269.617  0.2697 0.1121 0.2492 0.2938 0.2391 0.3326 0.3916 0.5049 0.4846 0.4063
3288.907  0.3322 0.3587 0.4441 0.35 0.3263 0.3974 0.3106 0.3518 0.4876 0.411
3308.197  0.3753 0.4076 0.4646 0.5241 0.5836 0.7014 0.6379 0.5447 0.4861 0.5897
3327.487  0.7942 0.9094 1.0188 1.1097 1.223 1.273 1.453 1.623 1.483 1.583
3346.777  1.753 1.823 2.073 2.343 2.633 2.773 2.883 3.213 3.493 3.663
3366.066  3.883 3.923 3.903 3.913 3.893 3.933 3.893 3.573 3.373 3.483
3385.356  3.573 3.693 3.813 3.763 3.803 3.903 3.933 4.063 4.203 4.473
3404.646  4.793 4.893 4.783 4.973 5.303 5.453 5.573 5.463 5.323 5.303
3423.936  5.193 5.173 5.303 5.323 5.203 4.953 4.803 4.763 4.673 4.553
3443.225  4.263 4.133 4.043 3.733 3.533 3.193 3.083 3.123 2.783 2.593
3462.515  2.413 2.153 2.053 1.853 1.673 1.643 1.573 1.483 1.543 1.523
3481.805  1.463 1.313 1.263 1.343 1.213 1.183 1.233 1.293 1.173 1.0464
3501.095  0.9682 0.9618 0.9936 0.8689 0.6983 0.6658 0.8828 0.9202 0.9342 1.0334
3520.385  0.8319 0.8054 0.8997 0.9126 0.9793 1.163 1.263 1.173 1.243 1.233
3539.674  1.163 1.128 1.133 1.173 1.1241 1.1051 1.183 1.223 1.233 1.323
3558.964  1.393 1.363 1.263 1.293 1.453 1.503 1.543 1.463 1.363 1.443
3578.254  1.433 1.513 1.513 1.503 1.553 1.563 1.573 1.583 1.693 1.853
3597.544  1.983 2.163 2.263 2.183 2.163 2.203 2.223 2.263 2.243 2.263
3616.833  2.433 2.543 2.633 2.543 2.533 2.663 2.683 2.873 2.903 2.753
3636.123  2.843 2.973 3.143 3.393 3.383 3.513 3.743 3.893 3.893 3.953
3655.413  4.033 4.093 4.443 4.733 4.783 4.773 4.793 4.923 5.173 5.303
3674.703  5.393 5.483 5.553 5.613 5.543 5.373 5.313 5.363 5.413 5.443
3693.993  5.313 5.283 5.143 4.973 4.913 4.763 4.553 4.443 4.453 4.433
3713.282  4.223 4.043 3.923 3.703 3.613 3.543 3.443 3.463 3.553 3.513
3732.572  3.493 3.373 3.423 3.543 3.363 3.213 3.123 3.203 3.363 3.493
3751.862  3.523 3.513 3.623 3.653 3.673 3.773 3.933 3.943 3.933 3.983
3771.152  3.913 3.823 3.823 3.993 3.943 3.773 3.813 3.763 3.733 3.663
3790.441  3.453 3.283 3.243 3.243 3.023 2.843 2.593 2.443 2.513 2.473
3809.731  2.283 2.073 2.003 1.983 1.943 1.853 1.723 1.743 1.683 1.543
3829.021  1.463 1.333 1.253 1.243 1.183 1.163 1.143 1.0849 1.0799 1.0986
3848.311  1.0817 1.0687 1.133 1.1186 0.8815 0.8971 1.1007 0.9687 0.8832 0.8883
3867.601  0.7754 0.9258 0.9251 0.8917 0.7666 0.6044 0.78 0.7919 0.6483 0.5413
3886.890  0.4112 0.4706 0.6674 0.6536 0.5341 0.4211 0.5036 0.6421 0.7218 0.649
3906.180  0.4954 0.4407 0.4841 0.4285 0.21571 0.139409 0.3558 0.6209 0.6971 0.6316
3925.470  0.5391 0.3725 0.2853 0.2844 0.31 0.3712 0.3769 0.3824 0.451 0.4299
3944.760  0.3658 0.4765 0.426 0.3673 0.2902 0.17281 0.2542 0.3072 0.19072 0.0831
3964.049  0.20819 0.3304 0.2244 0.18216 0.2689 0.3835 0.4458 0.20556 0.0559 0.1054
3983.339  0.16139 0.20799 0.21414 0.138282 0.1183 0.3214 0.3428 0.3098 0.21805 0.17962
##END=
