##TITLE=3,3'-Bis(methylamino)-N-methyldipropylamine
##JCAMP-DX=4.24
##DATA TYPE=INFRARED SPECTRUM
##ORIGIN=NIST Mass Spectrometry Data Center
##OWNER=NIST Standard Reference Data Program
Collection (C) 2003 copyright by the U.S. Secretary of Commerce
on behalf of the United States of America. All rights reserved.
##CAS REGISTRY NO=123-70-6
##MOLFORM=C9H23N3
##$NIST SOURCE=MSDC-IR
##SPECTROMETER/DATA SYSTEM=HP-GC/MS/IRD
##STATE=gas
##XUNITS=1/CM
##YUNITS=ABSORBANCE
##XFACTOR=1.0
##YFACTOR=0.000013500
##DELTAX=4.0
##FIRSTX=550.0
##LASTX=3846.0
##FIRSTY=0.003213
##MAXX=3846
##MINX=550
##MAXY=0.135
##MINY=0
##NPOINTS=825
##XYDATA=(X++(Y..Y))
550.0 238 181 4 47 36 33 34 35 36 37
590.0 41 52 70 89 104 134 168 197 238 280
630.0 327 377 426 488 550 610 677 751 827 904
670.0 975 1044 1109 1173 1232 1284 1335 1390 1438 1481
710.0 1510 1514 1487 1427 1337 1238 1130 1021 927 840
750.0 760 704 653 597 552 509 475 447 413 377
790.0 352 330 313 302 295 294 298 309 324 340
830.0 351 358 354 345 325 299 280 263 249 240
870.0 232 227 218 212 213 212 217 225 230 235
910.0 245 252 252 253 253 247 244 245 249 262
950.0 278 295 321 345 363 380 394 409 426 451
990.0 484 522 567 625 702 800 921 1056 1194 1315
1030.0 1409 1476 1528 1580 1633 1683 1730 1750 1730 1662
1070.0 1535 1366 1192 1050 964 951 1021 1166 1375 1630
1110.0 1910 2186 2424 2588 2681 2716 2707 2681 2652 2623
1150.0 2573 2483 2345 2172 1986 1804 1636 1485 1353 1239
1190.0 1154 1095 1050 1005 952 891 825 762 713 683
1230.0 681 691 704 717 722 727 731 737 747 753
1270.0 744 721 691 666 663 680 711 754 796 830
1310.0 853 860 848 825 810 826 886 983 1091 1186
1350.0 1272 1357 1431 1473 1463 1410 1320 1197 1044 884
1390.0 733 610 523 471 453 469 518 602 713 849
1430.0 1024 1242 1516 1830 2149 2430 2639 2778 2855 2868
1470.0 2785 2558 2196 1755 1323 971 722 554 434 352
1510.0 288 239 204 176 151 130 116 104 93 82
1550.0 73 67 62 57 52 49 46 42 39 36
1590.0 35 34 31 30 30 29 29 31 32 35
1630.0 36 39 45 44 43 42 38 32 27 21
1670.0 18 14 12 11 11 6 8 9 7 7
1710.0 6 5 4 2 0 0 0 0 0 1
1750.0 2 2 4 6 8 9 11 13 16 19
1790.0 21 24 25 29 32 32 35 39 41 41
1830.0 43 45 46 47 48 47 45 46 47 47
1870.0 46 44 41 39 38 38 37 35 34 32
1910.0 31 30 29 30 31 30 28 31 33 32
1950.0 32 33 33 34 35 36 35 36 37 37
1990.0 40 41 41 43 44 45 47 47 48 51
2030.0 53 53 55 55 53 56 57 57 59 58
2070.0 58 60 60 59 57 53 50 49 48 48
2110.0 46 43 42 40 38 37 35 33 34 35
2150.0 33 32 33 32 32 33 34 33 33 34
2190.0 35 36 36 34 34 35 33 34 36 36
2230.0 39 38 38 40 40 39 37 36 37 38
2270.0 37 38 40 42 43 43 42 43 46 46
2310.0 45 47 49 51 51 50 49 50 52 53
2350.0 55 55 54 56 58 60 60 56 54 54
2390.0 56 55 54 57 59 59 61 62 63 64
2430.0 66 66 67 69 74 73 72 76 82 85
2470.0 90 96 103 111 119 123 129 135 141 145
2510.0 144 147 153 155 157 161 163 165 168 172
2550.0 177 183 189 195 203 211 220 229 239 252
2590.0 263 275 285 297 309 322 338 352 366 384
2630.0 399 416 437 460 485 513 546 586 633 683
2670.0 737 794 856 920 983 1048 1113 1174 1236 1298
2710.0 1360 1426 1494 1564 1642 1727 1819 1930 2068 2252
2750.0 2507 2859 3338 3945 4648 5372 6052 6694 7376 8158
2790.0 8980 9656 9944 9721 9078 8260 7489 6857 6351 5956
2830.0 5685 5570 5604 5740 5897 5986 5951 5793 5567 5337
2870.0 5163 5075 5068 5126 5231 5364 5500 5616 5710 5811
2910.0 5966 6208 6552 6995 7505 8065 8660 9250 9740 10000
2950.0 9903 9407 8615 7733 6979 6444 6010 5456 4664 3727
2990.0 2849 2163 1685 1366 1147 987 869 779 707 651
3030.0 603 562 526 496 470 444 422 404 384 365
3070.0 350 333 313 299 286 271 254 238 230 224
3110.0 217 206 195 190 185 175 168 164 157 149
3150.0 146 145 143 140 137 135 134 131 126 122
3190.0 117 114 107 105 105 98 94 91 90 87
3230.0 87 87 84 82 85 85 79 73 73 75
3270.0 71 71 69 71 76 74 75 75 73 80
3310.0 90 103 116 137 168 199 223 238 240 231
3350.0 219 199 174 153 138 120 102 95 93 86
3390.0 80 76 74 70 64 63 61 61 60 58
3430.0 57 54 52 50 50 48 47 45 44 41
3470.0 39 39 40 36 33 35 37 33 31 34
3510.0 32 31 34 33 32 32 32 37 34 31
3550.0 32 34 39 37 32 36 37 34 36 37
3590.0 39 39 36 33 33 37 39 40 40 42
3630.0 40 39 42 44 46 44 43 43 42 42
3670.0 46 43 44 49 49 46 42 43 48 45
3710.0 40 44 47 48 47 44 43 44 47 48
3750.0 48 47 43 46 52 52 47 47 47 47
3790.0 50 55 59 60 59 58 61 61 58 56
3830.0 59 64 62 59 60
##END=
