##TITLE=Pyrrolidine
##JCAMP-DX=4.24
##DATA TYPE=INFRARED SPECTRUM
##ORIGIN=NIST Mass Spectrometry Data Center
##OWNER=NIST Standard Reference Data Program
Collection (C) 2003 copyright by the U.S. Secretary of Commerce
on behalf of the United States of America. All rights reserved.
##CAS REGISTRY NO=123-75-1
##MOLFORM=C4H9N
##$NIST SOURCE=MSDC-IR
##SPECTROMETER/DATA SYSTEM=HP-GC/MS/IRD
##STATE=gas
##XUNITS=1/CM
##YUNITS=ABSORBANCE
##XFACTOR=1.0
##YFACTOR=0.000005900
##DELTAX=4.0
##FIRSTX=550.0
##LASTX=3846.0
##FIRSTY=0.003758
##MAXX=3846
##MINX=550
##MAXY=0.059
##MINY=0
##NPOINTS=825
##XYDATA=(X++(Y..Y))
550.0 637 1137 984 1072 1152 1194 1104 985 925 887
590.0 815 711 613 521 449 387 331 288 255 246
630.0 239 223 216 213 221 237 253 266 281 312
670.0 322 339 366 376 387 410 454 487 513 542
710.0 584 641 697 753 812 880 951 1032 1117 1199
750.0 1280 1364 1456 1554 1633 1666 1675 1687 1686 1677
790.0 1651 1579 1499 1416 1317 1204 1094 1016 933 849
830.0 800 764 722 685 676 645 604 608 610 593
870.0 578 558 550 566 587 609 640 662 671 664
910.0 639 611 561 500 447 398 351 307 258 215
950.0 177 145 124 106 89 81 67 57 57 54
990.0 49 52 51 35 39 56 63 67 79 99
1030.0 112 131 153 168 203 257 330 416 512 623
1070.0 746 836 906 976 1029 1054 1059 1047 1004 924
1110.0 822 719 619 514 427 360 302 250 211 182
1150.0 176 182 178 177 173 184 207 219 223 230
1190.0 235 238 252 273 260 242 244 248 250 247
1230.0 241 240 243 244 246 259 283 300 320 342
1270.0 348 349 352 353 351 347 335 313 287 263
1310.0 235 209 195 188 182 182 179 178 181 180
1350.0 180 185 187 185 191 207 225 254 287 324
1390.0 365 403 439 462 468 469 465 452 433 411
1430.0 391 370 352 343 330 312 297 302 312 297
1470.0 272 249 232 208 175 146 119 94 78 67
1510.0 52 41 34 30 26 23 25 30 29 16
1550.0 10 12 9 5 6 9 3 0 0 0
1590.0 1 6 11 16 22 24 28 32 35 33
1630.0 35 40 39 38 34 36 38 31 31 34
1670.0 32 32 35 42 43 39 39 41 42 40
1710.0 37 39 37 31 29 30 28 27 29 32
1750.0 31 33 35 31 28 32 32 30 28 24
1790.0 27 32 33 38 39 38 43 51 50 53
1830.0 54 51 51 52 47 41 41 45 44 42
1870.0 44 42 42 40 40 41 42 39 38 37
1910.0 34 35 38 37 34 33 34 35 38 38
1950.0 35 36 40 42 43 45 47 50 51 51
1990.0 55 55 55 55 53 56 53 56 55 56
2030.0 57 54 50 52 53 50 50 46 44 43
2070.0 44 47 49 45 45 50 50 49 46 47
2110.0 47 45 48 47 46 53 61 55 53 55
2150.0 55 55 56 57 54 56 61 63 63 59
2190.0 58 58 60 57 55 57 53 49 53 56
2230.0 55 52 49 46 48 51 53 49 47 51
2270.0 52 53 52 49 49 49 51 52 52 55
2310.0 57 57 57 59 58 60 59 61 66 64
2350.0 64 63 66 66 63 59 54 52 45 41
2390.0 40 36 35 35 36 36 36 39 37 34
2430.0 35 36 39 42 39 43 49 49 47 47
2470.0 52 52 49 49 50 55 58 50 49 57
2510.0 58 53 54 58 57 60 61 58 57 59
2550.0 64 67 74 78 78 81 84 88 97 104
2590.0 108 118 122 132 145 146 149 159 168 168
2630.0 173 178 186 188 180 176 175 183 186 189
2670.0 199 206 208 211 215 221 233 244 248 260
2710.0 278 293 299 307 325 352 381 404 433 464
2750.0 498 532 574 618 671 736 811 905 1029 1183
2790.0 1354 1523 1688 1852 2012 2193 2486 2827 2924 2830
2830.0 2796 2838 2893 2939 2990 3087 3251 3475 3735 3986
2870.0 4220 4444 4689 4966 5096 5076 5078 5098 5108 5125
2910.0 5138 5099 4998 4942 5060 5335 5698 6117 6540 6897
2950.0 7157 7289 7417 7871 9325 10000 8237 6704 5972 5333
2990.0 4894 4347 3689 3006 2390 1880 1484 1188 981 831
3030.0 717 630 556 491 437 383 336 302 268 244
3070.0 217 193 176 161 146 142 133 121 116 109
3110.0 106 101 94 89 87 81 81 84 76 66
3150.0 63 62 68 71 63 58 62 65 56 52
3190.0 58 60 57 59 63 64 63 56 60 64
3230.0 61 59 52 50 53 52 47 47 45 42
3270.0 41 42 41 37 34 35 44 43 38 43
3310.0 51 52 50 56 59 65 66 60 54 62
3350.0 70 63 59 66 62 58 67 62 56 59
3390.0 52 42 52 59 48 52 57 56 62 61
3430.0 55 50 44 55 67 59 57 61 55 51
3470.0 51 56 62 59 58 59 60 65 66 67
3510.0 78 79 74 71 69 70 73 79 75 69
3550.0 63 69 71 69 79 92 84 78 80 68
3590.0 59 70 78 73 75 68 61 61 61 66
3630.0 69 67 63 74 79 69 68 66 67 80
3670.0 90 84 86 88 86 78 71 74 74 76
3710.0 82 79 73 72 64 62 69 78 87 84
3750.0 93 90 78 84 84 97 96 81 81 87
3790.0 86 87 88 91 95 95 95 92 90 87
3830.0 91 100 106 92 84
##END=
