##TITLE=2-Aminoheptane
##JCAMP-DX=4.24
##DATA TYPE=INFRARED SPECTRUM
##ORIGIN=NIST Mass Spectrometry Data Center
##OWNER=NIST Standard Reference Data Program
Collection (C) 2003 copyright by the U.S. Secretary of Commerce
on behalf of the United States of America. All rights reserved.
##CAS REGISTRY NO=123-82-0
##MOLFORM=C7H17N
##$NIST SOURCE=MSDC-IR
##SPECTROMETER/DATA SYSTEM=HP-GC/MS/IRD
##STATE=gas
##XUNITS=1/CM
##YUNITS=ABSORBANCE
##XFACTOR=1.0
##YFACTOR=0.000004500
##DELTAX=4.0
##FIRSTX=550.0
##LASTX=3846.0
##FIRSTY=0.000590
##MAXX=3846
##MINX=550
##MAXY=0.045
##MINY=0
##NPOINTS=825
##XYDATA=(X++(Y..Y))
550.0 131 48 0 21 23 50 78 82 99 92
590.0 93 84 81 89 94 107 117 122 134 140
630.0 128 121 124 132 137 170 205 217 241 254
670.0 256 273 301 317 320 344 384 417 459 497
710.0 540 603 660 734 810 876 938 1008 1090 1181
750.0 1269 1373 1507 1651 1794 1934 2082 2204 2272 2282
790.0 2214 2074 1887 1676 1467 1277 1109 981 884 815
830.0 763 697 642 591 545 500 453 419 381 345
870.0 318 292 264 243 230 210 197 190 177 169
910.0 166 161 156 150 144 146 146 148 157 168
950.0 175 186 186 178 167 156 141 122 109 99
990.0 100 111 115 120 125 136 158 172 186 207
1030.0 214 223 238 248 253 255 247 248 253 251
1070.0 256 260 255 252 250 256 253 248 255 268
1110.0 284 313 348 384 416 451 495 543 578 595
1150.0 587 547 476 400 330 278 238 215 209 199
1190.0 190 196 200 197 190 182 183 179 177 174
1230.0 172 172 164 158 159 147 145 154 155 158
1270.0 168 180 194 206 216 227 238 250 268 287
1310.0 305 328 356 398 448 510 573 638 694 732
1350.0 758 784 829 900 994 1100 1188 1223 1187 1087
1390.0 939 769 611 489 405 352 324 317 329 357
1430.0 411 487 578 685 813 940 1053 1128 1145 1102
1470.0 1012 884 738 603 485 398 333 284 245 224
1510.0 208 193 181 170 160 154 153 154 154 153
1550.0 156 161 170 173 183 201 218 246 271 303
1590.0 352 409 477 560 645 731 804 843 845 802
1630.0 726 633 530 435 355 297 249 205 170 147
1670.0 132 118 103 92 81 75 73 72 64 58
1710.0 55 53 53 48 43 45 46 41 37 36
1750.0 35 35 34 34 33 31 30 27 26 28
1790.0 30 28 27 28 26 26 25 22 21 21
1830.0 23 23 22 25 26 23 21 21 19 19
1870.0 21 20 19 20 19 18 18 16 18 17
1910.0 14 16 14 16 17 13 12 11 14 13
1950.0 12 13 12 15 16 13 9 9 11 11
1990.0 14 14 13 14 13 12 14 17 21 22
2030.0 20 18 17 22 20 19 21 20 14 11
2070.0 12 11 12 13 13 13 13 12 11 13
2110.0 11 13 14 10 14 17 18 15 13 13
2150.0 11 12 13 10 9 11 15 15 15 16
2190.0 15 16 14 11 10 12 13 12 11 13
2230.0 9 11 11 12 15 20 22 22 22 23
2270.0 23 22 20 19 20 20 17 14 16 22
2310.0 26 28 30 31 30 30 26 26 25 24
2350.0 25 27 30 31 35 34 29 30 30 29
2390.0 30 29 30 32 31 32 31 32 31 33
2430.0 36 36 33 36 30 28 26 26 29 31
2470.0 34 35 35 34 34 37 35 33 38 41
2510.0 42 45 41 40 46 50 55 62 61 64
2550.0 73 74 74 79 83 83 89 94 96 99
2590.0 105 109 115 119 121 126 133 139 143 145
2630.0 151 157 161 167 171 177 185 191 196 199
2670.0 201 202 199 200 201 198 195 196 198 203
2710.0 209 218 228 238 249 259 264 272 282 282
2750.0 275 273 275 282 284 291 308 329 352 375
2790.0 407 447 490 531 582 640 714 802 906 1040
2830.0 1205 1410 1667 1985 2359 2778 3205 3602 3939 4189
2870.0 4353 4459 4495 4436 4357 4302 4311 4472 4827 5368
2910.0 6064 6875 7759 8634 9375 9864 10000 9757 9227 8619
2950.0 8144 7957 8074 8291 8264 7794 6896 5674 4375 3277
2990.0 2453 1851 1420 1131 935 795 704 626 564 518
3030.0 476 437 400 376 349 320 306 291 277 265
3070.0 254 247 240 233 227 223 218 203 191 183
3110.0 179 171 160 155 148 146 150 143 135 133
3150.0 135 137 138 132 127 129 130 128 128 126
3190.0 124 119 110 105 98 91 89 88 81 67
3230.0 69 65 56 60 60 58 55 54 52 56
3270.0 53 41 43 45 48 49 50 48 46 48
3310.0 62 82 92 99 111 127 125 119 117 103
3350.0 94 87 72 63 58 48 45 48 48 44
3390.0 41 44 46 42 39 35 31 29 28 24
3430.0 21 22 22 24 26 27 25 22 13 11
3470.0 16 15 11 14 19 17 20 19 15 18
3510.0 18 18 20 16 10 9 12 11 9 12
3550.0 17 17 12 9 11 17 17 16 14 12
3590.0 12 13 17 22 23 22 21 21 18 28
3630.0 33 28 24 19 23 23 19 16 21 24
3670.0 17 18 22 14 18 31 29 22 18 23
3710.0 27 20 15 19 22 24 28 31 33 32
3750.0 32 30 26 22 20 24 28 27 21 19
3790.0 23 26 32 34 30 26 29 35 35 29
3830.0 22 25 32 29 29
##END=
