##TITLE=N,N-Dimethyl-N'-ethylethylenediamine
##JCAMP-DX=4.24
##DATA TYPE=INFRARED SPECTRUM
##ORIGIN=EPA-IR VAPOR PHASE LIBRARY
##OWNER=SRD/NIST
Collection (C) 2003 copyright by the U.S. Secretary of Commerce
on behalf of the United States of America. All rights reserved.
##CAS REGISTRY NO=123-83-1
##MOLFORM=C6H16N2
##$NIST SOURCE=MSDC-IR
##STATE=gas
##XUNITS=1/CM
##YUNITS=ABSORBANCE
##XFACTOR=1.
##YFACTOR=0.001
##DELTAX=3.85796
##FIRSTX=501.5
##LASTX=4000.7
##FIRSTY=1.55737
##MAXX=4000.7
##MINX=501.534
##MAXY=0.0632174
##MINY=0
##NPOINTS=908
##XYDATA=(X++(Y..Y))
501.534  1.55737 1.65737 1.71737 1.72737 1.74737 1.57737 1.44737 1.35737 1.30737 1.33737
540.114  1.35737 1.39737 1.31737 1.37737 1.57737 1.62737 1.66737 1.60737 1.47737 1.46737
578.693  1.48737 1.50737 1.53737 1.58737 1.73737 1.86737 2.00737 2.05737 2.18737 2.39737
617.273  2.45737 2.55737 2.74737 2.98737 3.17737 3.43737 3.77737 4.07737 4.40737 4.78737
655.852  5.12737 5.49737 5.81737 6.15737 6.47737 6.74737 7.02737 7.31737 7.57737 7.77737
694.432  8.05737 8.23737 8.35737 8.52737 8.65737 8.67737 8.54737 8.36737 8.15737 7.82737
733.011  7.51737 7.18737 6.80737 6.44737 6.13737 5.88737 5.70737 5.57737 5.51737 5.62737
771.591  5.70737 5.70737 5.61737 5.33737 4.91737 4.45737 3.99737 3.55737 3.23737 3.07737
810.170  2.92737 2.80737 2.75737 2.67737 2.66737 2.73737 2.78737 2.85737 2.90737 2.86737
848.750  2.78737 2.75737 2.71737 2.57737 2.38737 2.25737 2.06737 1.93737 1.87737 1.73737
887.330  1.70737 1.70737 1.66737 1.66737 1.68737 1.77737 1.84737 1.94737 2.06737 2.18737
925.909  2.36737 2.66737 2.99737 3.39737 3.79737 4.08737 4.26737 4.28737 4.15737 3.86737
964.489  3.48737 3.10737 2.92737 2.88737 2.88737 2.98737 3.24737 3.56737 4.00737 4.63737
1003.068  5.39737 6.35737 7.48737 8.87737 10.4874 12.1574 13.9274 15.9074 18.0074 19.8674
1041.648  21.3174 22.2574 22.4374 21.6974 20.1374 17.9474 15.4074 12.9474 10.9774 9.35737
1080.227  8.29737 7.87737 7.76737 8.02737 8.52737 9.27737 10.3774 11.5874 12.8674 14.4874
1118.807  16.3374 18.1274 19.8874 21.2974 22.2074 22.5874 22.3274 21.4474 19.9374 17.9574
1157.387  15.7574 13.4674 11.3974 9.74737 8.35737 7.30737 6.56737 5.97737 5.47737 5.12737
1195.966  4.89737 4.71737 4.51737 4.26737 4.07737 3.92737 3.88737 4.03737 4.34737 4.87737
1234.546  5.60737 6.36737 7.13737 7.78737 8.38737 9.02737 9.59737 10.1874 10.8874 11.4474
1273.125  11.6674 11.5974 11.2574 10.7674 10.1874 9.58737 9.03737 8.44737 7.95737 7.59737
1311.705  7.33737 7.27737 7.42737 7.79737 8.29737 8.87737 9.47737 9.89737 10.0774 10.0674
1350.284  9.93737 9.64737 9.33737 9.20737 9.32737 9.63737 9.91737 10.0074 9.85737 9.36737
1388.864  8.53737 7.58737 6.72737 6.08737 5.61737 5.31737 5.25737 5.46737 5.94737 6.74737
1427.443  7.99737 9.78737 12.1874 15.1374 18.3974 21.7974 24.9874 27.4074 28.6174 28.5474
1466.023  27.2074 24.6974 21.4074 17.8974 14.4274 11.2774 8.75737 6.87737 5.50737 4.51737
1504.603  3.83737 3.28737 2.86737 2.54737 2.30737 2.09737 1.90737 1.76737 1.61737 1.47737
1543.182  1.37737 1.26737 1.18737 1.13737 1.07737 1.00347 0.90247 0.83677 0.83437 0.79457
1581.762  0.75857 0.74087 0.70307 0.67277 0.66917 0.66847 0.64127 0.62157 0.61497 0.60807
1620.341  0.60907 0.62927 0.63557 0.62547 0.61237 0.58917 0.59887 0.60857 0.60637 0.59737
1658.921  0.59727 0.60267 0.60527 0.61467 0.61047 0.58627 0.57647 0.54927 0.50467 0.49627
1697.500  0.48777 0.47327 0.44017 0.43527 0.45417 0.44437 0.42227 0.40517 0.40627 0.41607
1736.080  0.39727 0.34897 0.33257 0.33967 0.33667 0.33437 0.34077 0.32887 0.31567 0.33427
1774.659  0.33837 0.34097 0.35717 0.35387 0.37657 0.42297 0.43767 0.44927 0.46507 0.47247
1813.239  0.47887 0.48787 0.50277 0.50017 0.47757 0.48947 0.49337 0.47457 0.46417 0.44497
1851.819  0.42897 0.43467 0.45587 0.44917 0.44557 0.43697 0.41527 0.42467 0.43627 0.41467
1890.398  0.39957 0.39457 0.38347 0.37037 0.36047 0.35207 0.33427 0.31887 0.31827 0.33647
1928.978  0.33637 0.33037 0.31527 0.31757 0.32747 0.30777 0.30847 0.29737 0.30377 0.31107
1967.557  0.29177 0.28467 0.28897 0.29617 0.28597 0.26127 0.26977 0.30357 0.30067 0.29637
2006.137  0.33277 0.33057 0.31227 0.32187 0.33517 0.34987 0.37247 0.38937 0.37707 0.38107
2044.716  0.38507 0.37397 0.35917 0.36147 0.34587 0.34017 0.34807 0.35907 0.36847 0.35957
2083.296  0.35717 0.36137 0.37097 0.34167 0.32147 0.31437 0.30297 0.29007 0.27677 0.26757
2121.875  0.26387 0.27647 0.28147 0.31247 0.33777 0.31047 0.29227 0.28527 0.24207 0.22467
2160.455  0.25537 0.23717 0.21397 0.21807 0.20367 0.21117 0.22727 0.23967 0.23987 0.21667
2199.035  0.18197 0.20177 0.22447 0.22947 0.26057 0.26087 0.27477 0.28907 0.27257 0.26857
2237.614  0.26737 0.28057 0.29827 0.30047 0.28147 0.25367 0.25157 0.26487 0.26527 0.26897
2276.194  0.28687 0.26887 0.27277 0.31137 0.31547 0.31457 0.35627 0.34597 0.29617 0.29457
2314.773  0.30557 0.32427 0.34997 0.34147 0.32277 0.30997 0.31907 0.32337 0.30567 0.30867
2353.353  0.34077 0.35437 0.33847 0.34127 0.35537 0.36157 0.35857 0.38517 0.40817 0.41367
2391.932  0.43967 0.45277 0.46927 0.48637 0.47967 0.48127 0.48307 0.47227 0.47617 0.48407
2430.512  0.47927 0.48797 0.48977 0.48337 0.46217 0.45677 0.50587 0.55417 0.59207 0.61177
2469.092  0.65207 0.71947 0.76387 0.82587 0.88827 0.95277 0.99217 1.01737 1.04737 1.08737
2507.671  1.09737 1.06737 1.07737 1.07737 1.06737 1.10737 1.09737 1.08737 1.12737 1.15737
2546.251  1.13737 1.15737 1.20737 1.21737 1.22737 1.29737 1.34737 1.38737 1.45737 1.50737
2584.830  1.58737 1.67737 1.73737 1.77737 1.81737 1.85737 1.91737 2.02737 2.14737 2.23737
2623.410  2.32737 2.46737 2.61737 2.73737 2.89737 3.07737 3.22737 3.40737 3.62737 3.80737
2661.989  3.96737 4.19737 4.45737 4.73737 5.06737 5.44737 5.82737 6.23737 6.69737 7.21737
2700.569  7.76737 8.30737 8.92737 9.58737 10.2974 11.1274 12.0374 12.9974 14.0074 15.1274
2739.148  16.4274 17.9474 19.9074 22.4874 25.9674 30.5974 36.4374 42.9574 49.0174 53.7874
2777.728  56.8374 57.8674 57.0074 55.2174 53.5974 52.5474 52.1774 52.5474 53.7774 55.7374
2816.308  57.8174 59.1174 59.0074 57.2674 53.8974 49.3574 44.6974 40.8774 38.0674 36.1374
2854.887  34.9174 34.2574 33.9674 33.9974 34.3674 34.9774 35.6374 36.2674 36.8774 37.3874
2893.467  37.7074 37.9674 38.2574 38.5874 38.9674 39.5274 40.5474 42.2674 44.6174 47.5974
2932.046  51.0774 54.6774 57.9774 60.5074 61.8774 62.2874 62.3674 62.5674 62.9074 63.2174
2970.626  62.9674 60.9274 56.1374 49.0774 40.8474 32.3474 24.5574 18.4474 14.1774 11.2674
3009.205  9.21737 7.76737 6.70737 5.93737 5.35737 4.88737 4.51737 4.16737 3.84737 3.55737
3047.785  3.31737 3.09737 2.93737 2.77737 2.59737 2.45737 2.35737 2.28737 2.17737 2.10737
3086.364  2.03737 1.87737 1.78737 1.74737 1.70737 1.65737 1.56737 1.48737 1.43737 1.34737
3124.944  1.33737 1.33737 1.25737 1.17737 1.19737 1.23737 1.18737 1.11737 1.07737 1.08737
3163.524  1.08737 1.08737 1.07737 1.03737 1.02737 1.05737 1.00737 0.96947 0.98087 0.93327
3202.103  0.84707 0.81987 0.83537 0.79107 0.74617 0.68447 0.61757 0.58367 0.54127 0.48367
3240.683  0.45457 0.44477 0.40807 0.40257 0.42517 0.38967 0.37247 0.39677 0.36867 0.32097
3279.262  0.31967 0.30587 0.29677 0.31407 0.28117 0.23947 0.23717 0.31027 0.40497 0.43107
3317.842  0.44807 0.57507 0.72587 0.89177 1.03737 1.09737 1.14737 1.18737 1.17737 1.10737
3356.421  0.95667 0.81907 0.70457 0.54497 0.46287 0.39257 0.35487 0.36477 0.29997 0.27727
3395.001  0.32837 0.30047 0.23727 0.24987 0.26567 0.25937 0.26217 0.21657 0.20747 0.25887
3433.580  0.25927 0.19047 0.11257 0.10585 0.08119 0.07277 0.09814 0.07273 0.09059 0.12477
3472.160  0.14927 0.14877 0.11037 0.08592 0.04604 0.05943 0.12267 0.099 0.08399 0.11137
3510.740  0.07467 0.014779 0.013053 0.00141 0.02083 0.04318 0.008459 0 0.012936 0.05901
3549.319  0.01913 0.05043 0.07656 0.00397 0.01912 0.03656 0.011258 0.06185 0.09874 0.03704
3587.899  0.02881 0.03944 0.10209 0.12877 0.06309 0.06206 0.06166 0.01939 0.02238 0.07806
3626.478  0.10421 0.12647 0.15107 0.12407 0.08269 0.09759 0.11717 0.08649 0.11557 0.15487
3665.058  0.18147 0.19277 0.15677 0.10228 0.10212 0.13507 0.10576 0.07273 0.11217 0.14747
3703.637  0.09965 0.09152 0.09402 0.07054 0.10409 0.22267 0.25777 0.21777 0.20537 0.11207
3742.217  0.06965 0.13027 0.17317 0.18267 0.16187 0.15267 0.19267 0.14487 0.11967 0.17657
3780.797  0.22307 0.24497 0.21567 0.16997 0.17347 0.13337 0.12037 0.22047 0.23367 0.21497
3819.376  0.24257 0.29757 0.29567 0.24657 0.28007 0.27197 0.23257 0.20787 0.19557 0.23307
3857.956  0.22307 0.18847 0.23777 0.32987 0.32337 0.23297 0.16577 0.22047 0.25087 0.26107
3896.535  0.31987 0.33217 0.34987 0.34437 0.27277 0.29437 0.33807 0.30957 0.29247 0.32537
3935.115  0.30977 0.29447 0.32447 0.40297 0.52557 0.48287 0.52177 0.54197 0.49097 0.48027
3973.694  0.44367 0.42807 0.46127 0.51967 0.49267 0.44847 0.39977 0.32957
##END=
