##TITLE=Thiomorpholine
##JCAMP-DX=4.24
##DATA TYPE=INFRARED SPECTRUM
##ORIGIN=EPA-IR VAPOR PHASE LIBRARY
##OWNER=SRD/NIST
Collection (C) 2003 copyright by the U.S. Secretary of Commerce
on behalf of the United States of America. All rights reserved.
##CAS REGISTRY NO=123-90-0
##MOLFORM=C4H9NS
##$NIST SOURCE=MSDC-IR
##STATE=gas
##XUNITS=1/CM
##YUNITS=ABSORBANCE
##XFACTOR=1.
##YFACTOR=0.001
##DELTAX=1.92934
##FIRSTX=549.9
##LASTX=3999.5
##FIRSTY=5.292
##MAXX=3999.53
##MINX=549.863
##MAXY=0.096552
##MINY=0
##NPOINTS=1789
##XYDATA=(X++(Y..Y))
549.863  5.292 4.642 4.162 3.562 3.162 2.932 2.862 2.782 2.512 2.352
569.156  2.342 2.332 2.332 2.172 2.052 2.122 2.252 2.262 2.222 2.332
588.450  2.412 2.502 2.612 2.692 2.782 2.862 2.912 3.022 3.122 3.242
607.743  3.302 3.352 3.592 3.742 3.772 3.902 4.132 4.432 4.652 4.892
627.037  5.362 5.902 6.392 6.982 7.612 8.242 8.832 9.392 10.122 10.692
646.330  11.022 11.522 11.942 12.232 12.512 12.752 12.732 12.682 12.892 13.022
665.624  13.092 13.142 13.132 13.142 13.092 13.312 13.802 14.342 15.072 16.002
684.917  17.042 18.162 19.452 20.892 22.482 24.132 25.632 26.792 27.772 28.772
704.210  29.642 30.612 31.672 32.062 31.982 31.832 31.742 31.672 31.402 31.092
723.504  30.992 31.462 32.342 30.422 24.862 20.852 19.212 18.032 16.962 15.772
742.797  14.372 12.842 11.362 9.992 8.792 7.682 6.712 5.972 5.352 4.692
762.091  4.252 3.982 3.692 3.502 3.432 3.312 3.132 3.042 3.022 3.022
781.384  3.012 3.012 2.932 2.942 3.052 3.082 3.122 3.022 3.002 3.072
800.678  3.052 3.092 3.102 3.012 2.972 3.032 2.942 2.962 3.162 3.152
819.971  3.002 2.972 3.042 3.072 3.102 3.192 3.252 3.242 3.212 3.152
839.264  3.192 3.242 3.202 3.202 3.292 3.292 3.102 2.882 2.782 2.712
858.558  2.552 2.372 2.202 2.022 1.8801 1.7385 1.5832 1.579 1.6075 1.5138
877.851  1.4089 1.4228 1.4756 1.4255 1.3465 1.3481 1.3435 1.3482 1.3459 1.3095
897.145  1.275 1.2742 1.3366 1.3764 1.3328 1.3204 1.374 1.344 1.4252 1.5728
916.438  1.6819 1.768 1.8349 1.9197 2.102 2.242 2.312 2.472 2.662 2.882
935.732  3.152 3.442 3.712 4.092 4.562 4.952 5.342 5.802 6.272 6.852
955.025  7.502 8.152 8.852 9.552 10.202 10.602 10.982 11.742 12.862 14.062
974.318  14.732 14.022 12.182 10.992 10.982 11.262 11.382 11.262 11.012 10.622
993.612  10.032 9.432 8.902 8.352 7.672 6.982 6.482 6.252 6.012 5.562
1012.905  5.082 4.592 4.132 3.742 3.372 3.102 2.962 2.882 2.802 2.792
1032.199  2.912 3.062 3.192 3.292 3.292 3.242 3.172 3.222 3.412 3.562
1051.492  3.522 3.422 3.382 3.262 3.162 3.102 3.032 2.972 2.902 2.792
1070.786  2.712 2.632 2.532 2.462 2.422 2.352 2.422 2.512 2.522 2.622
1090.079  2.672 2.792 2.992 3.172 3.442 3.752 3.972 4.252 4.732 5.342
1109.372  6.072 6.792 7.562 8.372 9.182 10.022 10.862 11.802 12.592 13.132
1128.666  13.642 13.942 14.412 15.122 15.722 16.142 16.072 15.522 14.852 14.342
1147.959  13.982 13.402 12.592 11.682 10.642 9.572 8.742 7.992 7.132 6.372
1167.253  5.822 5.362 5.062 4.872 4.662 4.562 4.812 5.192 5.482 5.812
1186.546  6.142 6.492 6.752 6.952 7.102 7.202 7.322 7.222 7.052 7.022
1205.840  6.932 6.622 6.262 5.832 5.392 5.042 4.642 4.232 3.722 3.272
1225.133  2.992 2.782 2.522 2.412 2.382 2.372 2.532 2.622 2.712 3.002
1244.426  3.432 3.922 4.432 5.142 6.022 6.952 7.912 8.972 10.142 11.172
1263.720  11.942 12.412 12.652 12.642 12.462 12.452 12.842 13.192 13.252 13.122
1283.013  12.642 11.952 11.182 10.422 9.652 8.872 8.382 8.172 8.112 8.382
1302.307  9.022 9.892 10.922 12.022 13.022 13.792 14.372 14.862 15.152 14.982
1321.600  13.932 12.792 13.352 14.672 14.702 13.922 13.102 12.202 11.172 9.912
1340.894  8.672 7.622 6.682 5.942 5.372 4.992 4.682 4.452 4.372 4.392
1360.187  4.492 4.602 4.452 4.322 4.492 4.602 4.602 4.532 4.392 4.292
1379.480  4.132 4.012 3.982 3.982 4.002 4.022 4.112 4.362 4.732 5.112
1398.774  5.682 6.292 6.952 7.672 8.372 9.082 9.692 10.082 10.202 10.492
1418.067  11.382 12.892 14.752 16.602 16.872 15.262 14.112 14.002 14.142 14.332
1437.361  14.412 14.502 14.732 15.302 15.832 15.172 13.972 13.332 12.982 12.732
1456.654  12.382 11.952 11.262 10.042 8.882 8.002 7.122 6.272 5.442 4.652
1475.948  4.002 3.392 2.842 2.392 2.062 1.8341 1.6304 1.4413 1.3217 1.2022
1495.241  1.0946 1.0951 1.04258 1.0037 0.9513 0.831 0.769 0.809 0.829 0.791
1514.534  0.747 0.768 0.797 0.734 0.744 0.772 0.759 0.797 0.819 0.798
1533.828  0.785 0.816 0.843 0.807 0.83 0.847 0.834 0.836 0.854 0.859
1553.121  0.8641 0.847 0.809 0.769 0.741 0.755 0.766 0.767 0.698 0.644
1572.415  0.674 0.706 0.681 0.629 0.596 0.571 0.604 0.664 0.668 0.613
1591.708  0.576 0.578 0.54 0.522 0.543 0.55 0.565 0.547 0.573 0.687
1611.002  0.655 0.57 0.582 0.608 0.599 0.585 0.574 0.571 0.641 0.634
1630.295  0.605 0.613 0.599 0.562 0.545 0.566 0.53 0.521 0.556 0.551
1649.588  0.569 0.568 0.526 0.558 0.59 0.586 0.622 0.612 0.532 0.569
1668.882  0.627 0.594 0.577 0.541 0.524 0.523 0.504 0.52 0.519 0.475
1688.175  0.446 0.52 0.536 0.465 0.45 0.445 0.447 0.46 0.513 0.511
1707.469  0.423 0.432 0.463 0.409 0.437 0.524 0.543 0.511 0.498 0.474
1726.762  0.421 0.437 0.493 0.511 0.49 0.45 0.484 0.468 0.411 0.419
1746.056  0.42 0.464 0.483 0.499 0.525 0.52 0.541 0.532 0.496 0.464
1765.349  0.428 0.429 0.484 0.526 0.531 0.487 0.428 0.419 0.444 0.444
1784.642  0.446 0.461 0.486 0.509 0.498 0.485 0.483 0.516 0.55 0.55
1803.936  0.566 0.588 0.6 0.602 0.576 0.58 0.632 0.661 0.618 0.557
1823.229  0.54 0.572 0.647 0.692 0.645 0.581 0.611 0.64 0.62 0.587
1842.523  0.574 0.593 0.621 0.662 0.653 0.623 0.619 0.643 0.668 0.629
1861.816  0.609 0.577 0.531 0.589 0.564 0.508 0.498 0.499 0.529 0.527
1881.110  0.467 0.469 0.503 0.501 0.534 0.56 0.488 0.467 0.544 0.518
1900.403  0.466 0.488 0.49 0.471 0.489 0.509 0.527 0.531 0.497 0.483
1919.696  0.507 0.564 0.566 0.522 0.554 0.606 0.584 0.596 0.669 0.672
1938.990  0.649 0.677 0.691 0.654 0.668 0.715 0.707 0.693 0.699 0.688
1958.283  0.706 0.743 0.735 0.716 0.764 0.789 0.744 0.751 0.762 0.785
1977.577  0.816 0.777 0.718 0.682 0.674 0.636 0.587 0.578 0.581 0.586
1996.870  0.565 0.507 0.492 0.485 0.489 0.476 0.447 0.477 0.468 0.46
2016.164  0.439 0.427 0.42 0.35 0.385 0.41 0.355 0.382 0.396 0.412
2035.457  0.415 0.373 0.343 0.318 0.36 0.366 0.39 0.386 0.327 0.376
2054.750  0.392 0.389 0.433 0.44 0.447 0.419 0.406 0.447 0.456 0.454
2074.044  0.407 0.392 0.379 0.392 0.403 0.401 0.453 0.467 0.467 0.409
2093.337  0.411 0.469 0.504 0.522 0.538 0.552 0.568 0.566 0.566 0.55
2112.631  0.56 0.606 0.583 0.527 0.53 0.588 0.601 0.57 0.506 0.495
2131.924  0.52 0.533 0.551 0.537 0.521 0.559 0.57 0.556 0.555 0.536
2151.218  0.55 0.586 0.569 0.542 0.58 0.6 0.605 0.603 0.589 0.592
2170.511  0.637 0.668 0.655 0.661 0.676 0.73 0.721 0.702 0.708 0.693
2189.804  0.714 0.742 0.726 0.716 0.749 0.781 0.794 0.789 0.803 0.843
2209.098  0.833 0.761 0.712 0.734 0.724 0.687 0.694 0.725 0.725 0.676
2228.391  0.656 0.653 0.66 0.634 0.633 0.615 0.561 0.583 0.603 0.598
2247.685  0.594 0.605 0.557 0.494 0.522 0.548 0.519 0.529 0.565 0.553
2266.978  0.527 0.504 0.55 0.609 0.576 0.567 0.577 0.556 0.502 0.508
2286.272  0.566 0.524 0.504 0.506 0.497 0.508 0.505 0.54 0.497 0.463
2305.565  0.51 0.504 0.509 0.511 0.483 0.457 0.447 0.505 0.509 0.456
2324.858  0.464 0.478 0.465 0.483 0.561 0.572 0.55 0.564 0.533 0.512
2344.152  0.489 0.504 0.552 0.552 0.582 0.623 0.632 0.613 0.646 0.698
2363.445  0.663 0.617 0.631 0.665 0.651 0.642 0.647 0.622 0.643 0.679
2382.739  0.647 0.636 0.614 0.626 0.646 0.62 0.645 0.618 0.601 0.607
2402.032  0.605 0.586 0.566 0.564 0.524 0.509 0.565 0.588 0.525 0.476
2421.326  0.489 0.527 0.537 0.56 0.526 0.503 0.505 0.479 0.502 0.515
2440.619  0.516 0.5 0.526 0.551 0.493 0.48 0.515 0.523 0.54 0.528
2459.912  0.521 0.555 0.6 0.615 0.563 0.543 0.56 0.597 0.584 0.527
2479.206  0.541 0.564 0.572 0.574 0.58 0.563 0.523 0.51 0.54 0.566
2498.499  0.554 0.541 0.526 0.523 0.468 0.468 0.508 0.413 0.342 0.361
2517.793  0.415 0.462 0.44 0.439 0.507 0.527 0.518 0.485 0.458 0.484
2537.086  0.501 0.503 0.496 0.505 0.552 0.605 0.659 0.645 0.655 0.646
2556.380  0.594 0.637 0.712 0.714 0.677 0.686 0.713 0.81 0.8753 0.8864
2575.673  0.8692 0.787 0.783 0.8705 0.8957 0.9151 0.9189 0.9194 0.9306 0.9202
2594.966  0.968139 1.02569 1.06152 1.0762 1.0853 1.1036 1.1893 1.3263 1.4108 1.4129
2614.260  1.4584 1.591 1.6781 1.6924 1.7593 1.878 1.9115 1.9169 2.002 2.102
2633.553  2.142 2.232 2.362 2.492 2.482 2.282 2.092 2.012 2.072 2.132
2652.847  2.152 2.202 2.172 2.152 2.232 2.322 2.402 2.502 2.592 2.802
2672.140  2.972 3.032 3.052 3.102 3.272 3.332 3.302 3.352 3.392 3.382
2691.434  3.352 3.432 3.452 3.392 3.382 3.332 3.292 3.292 3.302 3.372
2710.727  3.432 3.452 3.542 3.712 3.862 3.952 4.092 4.392 4.572 4.672
2730.020  4.972 5.232 5.462 5.842 6.182 6.442 6.782 7.202 7.512 7.522
2749.314  7.182 6.792 6.492 6.262 6.072 5.902 5.882 5.842 5.792 5.802
2768.607  5.742 5.622 5.692 5.892 6.032 6.202 6.532 7.042 7.672 8.452
2787.901  9.412 10.502 11.742 13.152 14.662 16.262 17.882 19.622 21.362 23.002
2807.194  24.682 26.212 27.572 29.032 30.802 32.782 34.492 35.832 36.912 37.952
2826.488  39.232 40.902 42.752 44.222 44.412 43.032 40.702 38.302 36.362 34.972
2845.781  33.842 32.482 30.922 29.322 27.662 25.922 24.152 22.512 21.112 19.872
2865.074  18.912 18.282 17.882 17.532 17.512 17.872 18.412 19.192 20.142 21.082
2884.368  22.012 23.222 24.852 26.642 28.572 31.132 34.392 38.152 41.682 44.132
2903.661  45.902 48.022 50.682 53.582 57.052 61.602 67.192 74.052 82.042 89.592
2922.955  94.032 94.452 93.602 93.772 94.512 94.892 94.942 95.352 96.552 95.742
2942.248  91.482 86.942 83.202 79.762 76.562 72.922 66.442 57.222 49.662 44.482
2961.542  40.672 38.292 36.202 31.612 25.542 22.002 19.832 17.482 15.572 13.762
2980.835  11.882 10.012 8.292 6.702 5.292 4.282 3.532 2.892 2.292 1.9302
3000.128  1.7803 1.4747 1.2443 1.2303 1.2048 1.0157 0.97334 1.00106 0.766 0.833
3019.422  0.847 0.65 0.676 0.676 0.618 0.584 0.539 0.595 0.529 0.416
3038.715  0.456 0.461 0.369 0.238 0.326 0.433 0.387 0.278 0.208 0.291
3058.009  0.354 0.421 0.41 0.382 0.302 0.247 0.294 0.337 0.47 0.621
3077.302  0.665 0.647 0.576 0.424 0.447 0.467 0.447 0.467 0.513 0.514
3096.596  0.557 0.515 0.477 0.484 0.4 0.506 0.472 0.443 0.456 0.368
3115.889  0.386 0.408 0.456 0.44 0.459 0.465 0.52 0.555 0.482 0.448
3135.182  0.476 0.612 0.507 0.29 0.383 0.435 0.424 0.661 0.706 0.557
3154.476  0.536 0.623 0.661 0.541 0.631 0.685 0.502 0.538 0.603 0.658
3173.769  0.558 0.553 0.653 0.484 0.495 0.487 0.471 0.483 0.449 0.532
3193.063  0.404 0.363 0.457 0.449 0.5 0.559 0.481 0.335 0.398 0.468
3212.356  0.463 0.367 0.276 0.283 0.254 0.19 0.222 0.296 0.291 0.272
3231.650  0.324 0.36 0.4 0.492 0.447 0.366 0.199 0.021 0.169 0.348
3250.943  0.384 0.345 0.326 0.424 0.448 0.521 0.435 0.305 0.399 0.428
3270.236  0.389 0.236 0.246 0.476 0.533 0.395 0.411 0.503 0.479 0.603
3289.530  0.53 0.319 0.306 0.396 0.397 0.354 0.357 0.461 0.533 0.565
3308.823  0.692 0.632 0.462 0.375 0.368 0.278 0.234 0.252 0.35 0.416
3328.117  0.469 0.525 0.421 0.436 0.613 0.707 0.792 0.793 0.453 0.261
3347.410  0.422 0.445 0.413 0.537 0.621 0.673 0.598 0.633 0.735 0.76
3366.704  0.768 0.8842 0.97791 0.8899 0.816 0.823 0.79 0.721 0.596 0.567
3385.997  0.52 0.257 0.475 0.708 0.586 0.477 0.485 0.555 0.462 0.422
3405.290  0.358 0.178 0.1 0.109 0.144 0.253 0.346 0.214 0.145 0.252
3424.584  0.193 0.131 0.173 0.168 0.205 0.155 0.162 0.192 0.098 0.1
3443.877  0.203 0.272 0.18 0.112 0.076 0.06 0.231 0.29 0.259 0.371
3463.171  0.466 0.408 0.45 0.446 0.375 0.275 0.138 0.29 0.349 0.34
3482.464  0.457 0.414 0.352 0.376 0.365 0.285 0.236 0.284 0.347 0.321
3501.758  0.27 0.297 0.286 0.133 0.134 0.276 0.267 0.331 0.297 0.175
3521.051  0.19 0.36 0.443 0.403 0.403 0.286 0.275 0.361 0.334 0.136
3540.344  0 0.019 0.161 0.258 0.186 0.163 0.15 0.102 0.15 0.329
3559.638  0.382 0.38 0.444 0.252 0.156 0.216 0.202 0.18 0.157 0.187
3578.931  0.278 0.212 0.213 0.357 0.426 0.413 0.35 0.484 0.382 0.255
3598.225  0.278 0.22 0.208 0.287 0.45 0.518 0.506 0.497 0.548 0.531
3617.518  0.336 0.264 0.359 0.497 0.454 0.368 0.464 0.496 0.382 0.329
3636.812  0.397 0.47 0.477 0.365 0.331 0.343 0.293 0.194 0.242 0.393
3656.105  0.372 0.242 0.213 0.301 0.334 0.365 0.404 0.402 0.455 0.488
3675.398  0.484 0.529 0.423 0.407 0.446 0.375 0.357 0.35 0.365 0.419
3694.692  0.466 0.381 0.333 0.392 0.381 0.326 0.358 0.461 0.387 0.421
3713.985  0.461 0.45 0.506 0.405 0.393 0.404 0.304 0.18 0.163 0.244
3733.279  0.382 0.412 0.39 0.491 0.554 0.529 0.488 0.511 0.342 0.15
3752.572  0.261 0.387 0.378 0.35 0.469 0.521 0.511 0.491 0.502 0.621
3771.866  0.544 0.508 0.506 0.479 0.566 0.527 0.452 0.434 0.325 0.27
3791.159  0.391 0.451 0.417 0.334 0.431 0.407 0.238 0.314 0.423 0.41
3810.452  0.413 0.5 0.506 0.374 0.45 0.448 0.355 0.425 0.352 0.334
3829.746  0.434 0.578 0.653 0.594 0.569 0.588 0.493 0.447 0.439 0.416
3849.039  0.484 0.594 0.607 0.512 0.584 0.559 0.451 0.496 0.5 0.547
3868.333  0.707 0.733 0.589 0.615 0.64 0.566 0.561 0.707 0.821 0.727
3887.626  0.698 0.689 0.599 0.535 0.55 0.614 0.594 0.66 0.759 0.704
3906.920  0.661 0.644 0.621 0.653 0.588 0.524 0.522 0.588 0.665 0.59
3926.213  0.739 0.8721 0.789 0.724 0.716 0.72 0.744 0.762 0.818 0.841
3945.506  0.635 0.541 0.65 0.673 0.788 0.8995 0.83 0.72 0.672 0.625
3964.800  0.623 0.702 0.723 0.76 0.767 0.654 0.663 0.755 0.707 0.71
3984.093  0.651 0.577 0.617 0.604 0.632 0.669 0.679 0.6 0.539
##END=
