##TITLE=3-Amino-2-fluorobenzotrifluoride
##JCAMP-DX=4.24
##DATA TYPE=INFRARED SPECTRUM
##ORIGIN=EPA-IR VAPOR PHASE LIBRARY
##OWNER=SRD/NIST
Collection (C) 2003 copyright by the U.S. Secretary of Commerce
on behalf of the United States of America. All rights reserved.
##CAS REGISTRY NO=123973-25-1
##MOLFORM=C7H5F4N
##$NIST SOURCE=MSDC-IR
##STATE=gas
##XUNITS=1/CM
##YUNITS=ABSORBANCE
##XFACTOR=1.
##YFACTOR=0.001
##DELTAX=1.92898
##FIRSTX=549.8
##LASTX=4000.7
##FIRSTY=3.285
##MAXX=4000.7
##MINX=549.759
##MAXY=0.103345
##MINY=0
##NPOINTS=1790
##XYDATA=(X++(Y..Y))
549.759  3.285 3.725 3.495 3.845 4.445 3.795 3.695 3.555 2.965 2.945
569.049  3.865 4.075 3.095 2.985 3.275 3.585 4.015 3.955 4.235 3.915
588.339  4.045 5.285 5.535 4.945 4.405 4.665 4.295 3.815 4.245 4.755
607.628  4.965 5.465 6.425 6.665 6.565 6.525 7.035 7.385 7.095 7.245
626.918  7.435 6.865 5.895 6.095 6.815 6.905 6.405 6.115 6.525 6.905
646.208  6.665 6.305 6.345 6.865 7.095 7.275 7.465 7.585 7.975 8.375
665.498  8.725 8.925 9.105 8.725 8.585 9.195 8.895 8.025 7.555 7.345
684.787  7.085 6.745 6.945 7.225 6.805 6.195 6.555 6.955 6.855 7.015
704.077  7.145 7.455 8.005 8.955 10.045 11.155 12.675 14.005 15.185 16.515
723.367  18.295 20.225 21.865 21.635 19.585 17.375 16.125 15.275 13.915 12.335
742.657  10.305 8.325 6.705 5.825 5.355 5.225 5.085 4.835 4.805 5.065
761.947  5.195 5.195 5.795 6.355 6.585 7.245 8.675 9.795 10.795 12.145
781.236  13.545 14.225 14.505 14.105 13.055 12.145 10.965 9.775 8.795 8.435
800.526  7.745 6.585 5.595 5.285 5.555 5.955 5.825 5.535 5.875 6.625
819.816  7.325 7.455 7.475 7.195 7.225 7.845 7.755 7.315 6.965 6.475
839.106  5.995 5.165 4.445 4.365 4.315 4.025 3.535 3.275 3.385 3.195
858.395  2.995 3.175 3.375 3.515 3.835 3.505 3.215 3.575 3.635 3.435
877.685  3.055 2.925 3.255 3.855 3.405 3.115 3.765 3.965 4.035 4.505
896.975  4.955 5.125 6.125 7.355 9.175 11.355 13.145 15.375 17.095 18.355
916.265  19.055 18.845 18.455 17.575 15.635 12.875 9.785 7.115 5.585 4.445
935.555  3.565 3.215 2.915 2.935 2.755 2.645 2.745 2.725 2.965 2.785
954.844  2.115 1.925 2.165 2.225 2.475 2.815 2.775 2.305 2.195 2.695
974.134  2.805 2.615 2.505 2.235 2.215 1.985 2.015 2.415 2.425 2.675
993.424  2.135 2.355 2.805 2.285 2.425 2.445 2.315 2.205 1.925 2.505
1012.714  2.695 1.8479 1.8347 2.265 2.335 2.165 2.035 2.785 2.895 2.355
1032.003  3.025 3.245 3.605 3.875 3.505 4.125 4.895 5.575 6.545 6.835
1051.293  6.395 6.015 6.325 6.125 6.065 7.095 7.185 6.805 6.965 7.385
1070.583  7.095 6.025 6.065 5.925 6.355 7.985 8.905 9.145 9.335 11.405
1089.873  12.635 12.685 13.985 16.655 18.015 16.945 17.005 18.865 19.545 17.975
1109.163  17.175 14.425 11.475 11.645 12.145 11.935 12.295 12.865 13.095 14.455
1128.452  16.065 17.355 19.905 23.795 28.005 32.615 38.155 44.825 51.875 57.715
1147.742  64.605 73.455 81.345 87.155 93.125 99.865 103.345 101.715 96.825 90.935
1167.032  86.065 80.805 72.085 61.165 50.745 43.055 36.365 31.445 28.565 25.545
1186.322  22.525 20.815 22.715 25.845 27.145 28.915 31.415 33.205 33.405 32.915
1205.611  32.665 30.905 29.235 27.575 26.855 26.485 27.265 28.625 29.925 30.185
1224.901  28.325 28.195 27.825 26.285 24.925 21.485 17.135 13.205 10.545 8.645
1244.191  7.375 5.855 5.245 5.455 5.195 5.295 5.145 5.345 5.465 5.455
1263.481  5.475 5.855 6.055 5.495 5.325 5.865 6.385 6.905 8.035 9.095
1282.771  10.405 12.575 15.135 18.045 20.645 23.485 26.645 28.885 30.565 32.175
1302.060  33.595 34.895 36.185 37.295 38.495 40.155 42.645 45.605 48.955 52.545
1321.350  55.735 59.005 62.465 65.925 69.775 74.345 79.065 83.175 85.975 87.075
1340.640  86.415 83.395 78.065 70.615 61.145 50.295 39.075 28.675 20.535 15.025
1359.930  11.485 9.075 7.365 6.315 5.315 4.745 4.425 4.075 3.825 3.495
1379.219  3.215 2.995 2.885 2.815 2.605 2.345 2.135 1.985 1.995 2.025
1398.509  1.955 2.015 2.185 2.195 2.235 2.305 2.365 2.555 2.565 2.535
1417.799  2.575 2.375 2.315 2.345 2.305 2.315 2.245 2.205 2.425 2.615
1437.089  2.745 2.755 2.705 2.885 3.075 3.305 3.195 3.275 3.655 3.765
1456.378  3.915 4.465 5.135 5.725 6.435 7.465 8.865 10.595 12.595 15.055
1475.668  17.955 21.315 24.865 28.855 33.445 38.145 42.895 47.075 49.885 51.195
1494.958  51.605 51.055 49.585 47.445 44.265 40.385 36.055 31.705 27.605 23.435
1514.248  19.335 15.735 12.785 10.445 8.555 7.115 5.955 5.045 4.265 3.935
1533.538  3.865 3.575 3.305 3.115 2.915 2.735 2.535 2.495 2.475 2.445
1552.827  2.465 2.445 2.605 2.565 2.675 2.835 2.525 2.755 3.245 3.425
1572.117  3.585 3.535 4.055 4.695 4.745 4.995 5.425 6.145 6.615 6.935
1591.407  7.565 8.315 8.765 9.165 10.095 10.825 11.645 12.575 13.355 14.275
1610.697  15.165 15.855 16.495 17.025 17.175 17.415 17.955 18.245 18.315 18.455
1629.986  18.575 18.425 18.325 18.075 17.415 16.875 15.955 14.895 13.745 12.305
1649.276  11.065 10.065 8.835 7.965 7.395 6.795 6.185 5.405 4.725 4.535
1668.566  4.275 3.765 3.475 3.385 3.275 3.045 2.765 2.685 2.625 2.395
1687.856  2.175 1.985 1.915 1.8461 1.7115 1.7042 1.8181 1.8948 1.5728 1.2698
1707.146  1.3605 1.3935 1.4019 1.3118 1.1486 1.2234 1.2979 1.2736 1.3566 1.4971
1726.435  1.5547 1.3979 1.4386 1.4513 1.5492 1.5413 1.5243 1.683 1.5812 1.6012
1745.725  1.6704 1.5929 1.5265 1.5594 1.7039 1.8249 1.7939 1.7531 1.7922 1.6695
1765.015  1.533 1.5462 1.4738 1.4025 1.4459 1.4419 1.4095 1.4511 1.399 1.4286
1784.305  1.5353 1.4764 1.4408 1.5006 1.446 1.4033 1.3398 1.3069 1.4491 1.3704
1803.594  1.234 1.3362 1.288 1.2417 1.4483 1.6106 1.6182 1.6941 1.6448 1.612
1822.884  1.7666 1.8236 1.8099 1.7373 1.7584 1.843 1.935 1.955 1.7425 1.5316
1842.174  1.5419 1.5625 1.4421 1.2732 1.2716 1.2137 1.3353 1.4647 1.3422 1.2894
1861.464  1.261 1.2172 1.096 1.1677 1.238 1.1935 1.0996 1.1038 1.2582 1.3298
1880.754  1.4029 1.3637 1.3104 1.4568 1.4842 1.3999 1.4811 1.3763 1.3431 1.4756
1900.043  1.5647 1.6337 1.6583 1.6863 1.65 1.753 1.7199 1.6601 1.7602 1.6705
1919.333  1.4948 1.5072 1.3647 1.2779 1.3899 1.3725 1.3176 1.3161 1.3285 1.2824
1938.623  1.2746 1.1425 1.127 1.2151 1.173 1.0853 1.0698 1.1016 1.309 1.5284
1957.913  1.4636 1.3021 1.3123 1.3158 1.3007 1.3268 1.2749 1.2664 1.1546 1.084
1977.202  1.1077 1.0933 1.0654 1.1018 1.1522 1.0818 0.95486 0.92738 1.0261 1.3263
1996.492  1.2846 1.2365 1.3184 1.1764 1.1165 1.1475 1.1783 1.2246 1.0901 1.0313
2015.782  1.1116 1.2386 1.3314 1.0657 1.1008 1.2772 1.245 1.307 1.3864 1.28
2035.072  1.2288 1.2122 1.06 1.0758 1.1172 1.1142 1.1697 1.1904 1.2981 1.3224
2054.362  1.353 1.5301 1.3297 1.0934 1.227 1.3721 1.4461 1.2975 1.3088 1.3741
2073.651  1.2819 1.1827 1.2278 1.3692 1.3976 1.3315 1.2413 1.1199 1.0206 0.94487
2092.941  0.93675 0.97673 0.92075 0.95307 0.97586 1.0186 1.1197 1.2338 1.2824 1.3022
2112.231  1.3194 1.2787 1.0931 1.00442 1.1178 1.0968 1.0472 1.1051 1.0415 0.97973
2131.521  0.99012 0.90062 0.96555 1.1519 1.1519 1.00198 0.8436 0.8346 1.0207 1.1337
2150.810  0.94649 1.1413 1.3485 1.0515 0.97232 1.1122 1.1871 1.0429 0.8654 0.95905
2170.100  0.97359 0.92494 0.92835 0.90392 0.95247 0.949 0.90017 0.98945 0.93074 0.94771
2189.390  1.1514 1.1711 1.3249 1.3678 1.0597 1.1694 1.3413 1.2499 1.1653 1.191
2208.680  1.3182 1.2631 1.1324 1.3147 1.3776 1.304 1.3716 1.3541 1.3533 1.2607
2227.970  1.3716 1.4717 1.2448 1.1976 1.4164 1.37 1.3111 1.328 1.3782 1.3862
2247.259  1.2172 1.116 1.1198 1.1588 1.122 1.0989 1.0981 1.1923 1.2054 1.0429
2266.549  1.2225 1.3138 1.1861 1.1918 1.1652 1.1237 1.169 1.1656 1.2014 1.1554
2285.839  1.0923 1.2702 1.2614 1.2916 1.3846 1.3465 1.2871 1.3958 1.4424 1.2843
2305.129  1.4019 1.2524 0.98836 1.0549 1.2244 1.4098 1.4428 1.6414 1.6231 1.3861
2324.418  1.2774 1.2077 1.2926 1.3667 1.3172 1.1263 1.0321 1.206 1.4712 1.2755
2343.708  1.0481 1.2679 1.187 0.89752 0.94224 1.1081 1.0155 1.0418 1.1928 1.1553
2362.998  0.99119 0.8564 0.8396 0.99726 1.0658 0.852 0.98707 1.2599 1.2331 1.1632
2382.288  1.0735 0.9438 0.8413 1.00215 1.1469 1.2767 1.2777 1.1011 1.027 0.8719
2401.578  0.96425 1.2013 1.274 1.2867 1.259 1.147 0.97792 1.0414 1.0821 0.93022
2420.867  0.8722 0.8273 0.99731 1.0127 0.91799 1.023 1.2089 1.1578 1.0223 1.2115
2440.157  1.1383 1.0402 1.0345 0.95484 1.0667 1.3046 1.2507 1.1145 0.96619 0.746
2459.447  0.753 0.910766 1.1581 1.2378 1.0728 0.97666 0.914431 0.79 0.68 0.721
2478.737  0.99364 1.0552 0.91602 0.8868 0.9298 1.1176 1.252 0.8911 0.794 1.111
2498.026  1.2588 1.1415 0.92945 0.911331 1.1386 1.2563 1.0702 0.8266 0.8228 0.99241
2517.316  0.99332 0.98787 1.1381 1.1382 0.92454 0.90361 1.1127 1.125 1.0298 0.95294
2536.606  0.8747 0.909168 0.774 0.749 0.8933 1.1223 1.2733 1.2355 1.0926 0.839
2555.896  1.0316 1.2666 1.075 0.92935 1.0184 1.0433 1.0074 1.0821 1.1941 0.96036
2575.186  0.679 0.658 0.702 0.704 0.638 0.8763 0.93822 0.93048 0.804 0.719
2594.475  0.89864 0.881 0.8773 0.8133 0.8573 1.1391 1.396 1.1975 1.0257 1.0102
2613.765  1.2107 1.4019 1.3916 1.3645 1.3643 1.2961 1.1082 1.1326 1.2444 1.3017
2633.055  1.2157 1.2968 1.2207 1.0418 1.1004 1.0832 0.98431 1.0246 0.90282 1.1216
2652.345  1.3577 1.2246 1.184 1.1726 1.2595 1.3963 1.3485 1.044 0.8796 0.8199
2671.634  0.97363 1.1576 1.1365 1.2787 1.2121 1.2715 1.4716 1.1958 1.0741 0.95709
2690.924  0.732 0.97601 1.0281 0.96303 1.1601 1.1286 1.2409 1.00178 0.90188 1.2534
2710.214  1.1645 0.8059 0.8224 0.95248 0.804 0.757 0.95674 1.2184 0.99702 0.634
2729.504  0.557 0.8322 0.8625 0.702 0.8828 0.8169 0.502 0.731 1.1613 1.0206
2748.794  0.8855 1.0099 1.0333 1.1422 0.96862 0.629 0.67 0.97526 1.106 0.96253
2768.083  0.92564 1.1376 1.2197 0.99976 0.774 0.72 0.8213 0.8819 1.1507 1.3933
2787.373  1.1324 0.8691 0.8119 1.1007 1.1317 1.0364 1.1838 1.0079 0.673 0.91649
2806.663  1.0643 0.583 0.463 0.683 0.96456 0.94654 1.0163 1.0837 1.0469 1.0627
2825.953  0.96141 0.8914 1.0751 0.96145 0.8912 1.0911 0.8758 0.8369 0.943 0.89705
2845.242  0.8898 0.675 0.517 0.794 0.882 1.1256 1.222 0.9289 1.0379 1.1264
2864.532  1.0542 1.1249 1.1827 1.0472 0.97164 1.0898 0.96168 0.799 0.96629 1.3269
2883.822  1.3423 0.89653 0.8467 0.95328 1.1214 1.3741 0.8531 0.774 1.0522 0.723
2903.112  0.8869 1.0408 0.95795 1.101 1.3051 1.2631 1.2107 1.1834 1.1435 1.3176
2922.401  1.2768 1.1173 1.1305 1.1032 1.1188 1.2386 1.2619 1.007 0.94734 1.2207
2941.691  1.2914 1.2352 0.92558 0.725 1.0929 1.104 0.672 0.8282 0.99596 0.97845
2960.981  1.1189 1.1996 1.2045 1.1569 1.2182 1.3447 1.2178 1.282 1.3155 1.0766
2980.271  1.2894 1.1889 1.0296 1.3094 1.3432 1.2585 1.1762 1.1918 1.1961 0.8759
2999.561  0.79 0.99106 1.2491 1.295 0.775 0.21 0.271 0.61 1.1649 1.4801
3018.850  1.266 1.2149 1.3407 1.5806 1.8909 2.365 2.745 2.685 2.875 3.655
3038.140  3.905 3.365 3.415 3.845 3.685 3.455 3.295 2.765 2.475 2.785
3057.430  2.945 3.025 2.975 3.115 3.295 3.305 3.295 3.215 2.895 2.455
3076.720  2.625 2.615 2.465 2.375 2.055 1.8312 1.8672 1.8698 2.135 2.325
3096.009  2.235 2.385 2.235 2.125 2.005 1.7466 1.7136 1.4159 1.3091 1.5362
3115.299  1.5231 1.3689 1.1449 1.2832 1.0699 0.8312 0.648 0.784 1.3953 1.0468
3134.589  0.779 0.95901 1.1829 0.96927 0.686 1.1424 1.298 0.91692 0.789 1.0222
3153.879  1.2862 1.0697 0.777 0.8083 0.852 1.042 0.9033 1.2126 1.7234 1.6487
3173.169  1.2258 0.909819 1.2301 1.2989 1.1716 0.99045 0.625 0.494 1.1425 1.4366
3192.458  1.2305 1.3411 1.3057 1.1925 1.1312 1.0185 1.1981 1.7289 1.6903 1.4959
3211.748  1.2482 1.2333 1.2572 1.0458 1.1245 0.8317 0.768 1.1956 1.1153 0.9645
3231.038  0.91842 1.1208 1.6944 1.6981 1.1627 0.93804 0.8284 0.8195 1.0598 0.96816
3250.328  0.96304 1.3544 1.2392 0.95689 0.90089 1.1597 1.6586 1.4905 0.8456 0.747
3269.617  1.1831 1.1918 1.1683 1.1098 0.93721 0.94743 0.894 1.1293 1.3726 0.89532
3288.907  0.45 0.8521 0.694 0.603 0.756 0.602 0.558 0.56 0.821 0.89996
3308.197  0.92766 0.604 0.372 0.679 1.1565 1.104 0.708 1.0847 1.6405 1.1853
3327.487  0.8552 1.1243 0.93127 1.2611 1.3604 0.96247 0.904852 1.0881 1.2237 0.96644
3346.777  0.543 0.49 0.8382 0.8829 0.546 0.157 0.705 1.0265 0.8472 0.618
3366.066  0.73 1.0526 0.8743 0.735 0.59 0.905174 1.2985 1.2176 1.1562 1.4002
3385.356  1.6471 1.6613 1.6966 1.853 2.275 2.585 2.485 2.515 2.575 2.775
3404.646  3.755 4.485 5.165 5.555 5.655 6.085 6.585 7.325 7.955 8.215
3423.936  7.885 7.445 7.075 6.625 5.835 5.445 5.125 4.775 4.685 4.095
3443.225  3.495 2.965 2.905 3.095 2.245 1.3477 1.237 1.4624 1.8791 1.6179
3462.515  1.4052 1.4887 1.2887 1.4944 1.6029 1.3281 1.3965 1.6716 2.035 2.225
3481.805  2.015 1.915 2.605 3.195 3.125 3.625 4.105 4.485 4.765 5.055
3501.095  5.595 5.745 5.415 5.295 5.415 5.475 5.415 5.055 5.255 5.225
3520.385  4.685 4.845 5.185 5.105 4.745 4.155 3.775 3.595 3.255 2.945
3539.674  2.375 1.7608 1.6184 1.6136 1.5692 1.2617 1.1832 1.5423 1.2559 0.8886
3558.964  0.93625 0.92601 1.0328 0.678 0.61 1.0807 0.99447 0.779 0.428 0.38
3578.254  0.751 0.781 1.0679 1.2407 1.4904 1.1841 0.732 1.192 1.1846 1.2232
3597.544  1.3074 1.2183 1.3743 1.5778 1.2083 0.8527 0.372 0.019 0.536 0.94096
3616.833  1.2341 1.2029 0.566 0.092 0.689 1.305 1.4637 1.3251 1.1706 1.2023
3636.123  0.92631 0.801 0.99266 1.107 0.782 0.552 0.95699 1.3814 1.2728 1.3786
3655.413  1.4198 1.0074 0.609 0.365 0.96163 1.6894 1.0414 0.583 1.2705 1.3597
3674.703  1.2139 1.4165 1.6126 1.5916 1.4097 1.2346 1.2033 1.0827 0.706 0.609
3693.993  1.0462 1.3349 1.2852 0.8535 0.732 0.557 0 0.513 0.911317 0.58
3713.282  0.96065 1.3656 1.1332 1.2085 0.92051 0.462 0.667 0.8805 0.801 1.0307
3732.572  1.3185 1.134 0.8516 0.415 0.577 0.805 0.8301 1.0102 1.0053 0.97597
3751.862  0.646 0.667 1.1294 0.89724 0.79 1.0128 0.8534 0.57 0.8659 1.2219
3771.152  0.94577 1.2791 1.4765 1.4026 1.0566 0.8748 1.0421 0.66 0.759 0.793
3790.441  0.518 0.415 0.9881 1.2544 0.656 0.8937 1.3517 1.2529 1.3088 1.502
3809.731  1.4513 1.4686 1.5935 1.2982 1.0797 1.0536 0.659 0.627 0.8902 0.694
3829.021  0.525 0.8596 0.96728 0.64 0.581 1.0237 1.1251 0.8815 0.652 0.755
3848.311  1.4484 1.4723 0.99169 1.006 1.5827 1.744 1.1414 1.1525 1.1016 1.0646
3867.601  1.3075 1.4707 1.6421 1.8605 1.6669 1.4494 1.3797 1.169 1.1863 0.95736
3886.890  0.94254 1.3387 1.6917 1.7753 1.6571 1.3772 0.8286 0.99151 1.0946 0.91733
3906.180  1.4779 1.8522 1.2784 0.8614 1.0547 1.0479 1.4608 1.4689 1.0878 0.742
3925.470  0.739 1.1094 0.90339 0.466 0.8153 1.4821 1.3531 1.1103 0.99059 1.3708
3944.760  1.5914 1.4863 1.1911 0.693 0.433 1.084 1.5033 1.0386 1.3471 1.0772
3964.049  0.788 0.8814 0.98187 0.99973 1.3545 1.7629 1.6221 1.7215 1.4707 1.6264
3983.339  1.8885 1.4188 0.95786 1.2576 1.2532 0.546 0.781 1.352 1.501 1.4671
##END=
