##TITLE=Nonanedioic acid
##JCAMP-DX=4.24
##DATA TYPE=INFRARED SPECTRUM
##ORIGIN=NIST Mass Spectrometry Data Center
##OWNER=NIST Standard Reference Data Program
Collection (C) 2003 copyright by the U.S. Secretary of Commerce
on behalf of the United States of America. All rights reserved.
##CAS REGISTRY NO=123-99-9
##MOLFORM=C9H16O4
##$NIST SOURCE=MSDC-IR
##SPECTROMETER/DATA SYSTEM=HP-GC/MS/IRD
##STATE=gas
##XUNITS=1/CM
##YUNITS=ABSORBANCE
##XFACTOR=1.0
##YFACTOR=0.000001000
##DELTAX=4.0
##FIRSTX=550.0
##LASTX=3846.0
##FIRSTY=0.001328
##MAXX=3846
##MINX=550
##MAXY=0.01
##MINY=0
##NPOINTS=825
##XYDATA=(X++(Y..Y))
550.0 1328 1274 1202 1314 1366 1325 1321 1333 1437 1527
590.0 1631 1695 1639 1707 1750 1698 1662 1602 1496 1496
630.0 1468 1335 1186 1065 975 813 689 665 615 611
670.0 591 510 535 535 514 533 492 452 421 425
710.0 460 445 439 466 430 356 365 380 316 278
750.0 263 241 258 258 227 177 148 132 119 129
790.0 115 81 73 52 28 27 5 18 47 48
830.0 69 79 92 88 83 80 99 136 131 123
870.0 131 152 153 137 145 159 133 108 142 146
910.0 127 146 153 107 97 103 79 104 136 140
950.0 155 159 156 158 162 196 207 214 258 269
990.0 270 272 274 291 313 304 311 376 436 486
1030.0 520 572 691 822 985 1197 1391 1647 1911 2110
1070.0 2379 2630 2776 2936 3068 3162 3282 3497 3756 4043
1110.0 4386 4768 5107 5271 5241 5064 4791 4451 4038 3628
1150.0 3289 3034 2786 2589 2463 2317 2134 1980 1841 1710
1190.0 1594 1490 1395 1307 1246 1185 1096 1038 986 936
1230.0 888 869 874 850 847 835 849 895 895 893
1270.0 891 877 866 849 847 846 827 783 734 716
1310.0 710 704 697 694 698 723 784 865 939 992
1350.0 1060 1109 1185 1263 1329 1387 1432 1437 1416 1368
1390.0 1252 1086 935 793 703 654 630 629 610 605
1430.0 629 642 618 601 615 626 690 734 673 589
1470.0 495 410 321 232 179 138 99 76 60 78
1510.0 90 61 31 25 13 2 20 37 44 48
1550.0 43 65 99 94 82 88 94 84 51 41
1590.0 32 30 41 64 60 46 53 47 63 86
1630.0 76 82 107 126 148 163 169 165 158 175
1670.0 191 198 207 209 228 243 282 357 409 476
1710.0 577 701 858 1042 1271 1581 1962 2403 2931 3551
1750.0 4196 4816 5577 6535 7660 8861 9782 10000 9390 8190
1790.0 6891 5717 4712 3824 3008 2316 1761 1335 1021 786
1830.0 616 504 416 364 312 260 228 202 181 170
1870.0 153 128 133 125 109 108 104 99 96 92
1910.0 77 67 75 71 72 72 73 60 56 62
1950.0 70 66 56 48 40 45 55 49 53 58
1990.0 56 42 38 54 57 53 37 39 25 20
2030.0 33 27 24 39 35 33 38 15 9 26
2070.0 28 14 10 21 19 26 25 11 19 28
2110.0 28 31 41 53 49 38 44 46 42 52
2150.0 52 43 41 38 38 32 21 28 32 30
2190.0 33 34 36 45 49 52 51 53 60 50
2230.0 64 62 53 63 49 41 45 31 31 38
2270.0 36 46 52 36 30 32 29 36 49 61
2310.0 65 67 65 72 79 78 80 85 81 80
2350.0 63 65 96 111 108 107 100 82 73 51
2390.0 29 37 53 44 25 17 20 27 19 23
2430.0 23 18 30 33 30 27 29 25 16 14
2470.0 15 20 37 41 23 27 32 39 54 35
2510.0 28 34 27 34 44 58 42 12 10 8
2550.0 15 31 22 20 30 25 25 31 14 6
2590.0 28 40 34 32 37 37 21 12 43 62
2630.0 56 45 35 38 47 39 24 36 38 48
2670.0 72 71 78 66 68 69 56 79 82 75
2710.0 66 51 52 76 87 95 96 79 74 73
2750.0 93 104 101 106 101 80 77 98 105 86
2790.0 90 113 120 130 162 179 176 180 210 256
2830.0 243 246 321 388 499 651 813 1030 1271 1414
2870.0 1443 1392 1269 1126 1021 943 890 919 1002 1152
2910.0 1369 1644 1963 2328 2723 3101 3412 3609 3714 3654
2950.0 3397 2992 2517 2106 1772 1476 1244 1067 909 758
2990.0 652 561 491 417 339 280 256 236 212 199
3030.0 171 147 149 152 147 164 161 122 110 125
3070.0 132 126 136 119 112 113 120 105 80 79
3110.0 83 102 121 124 121 113 103 108 103 110
3150.0 146 143 124 137 146 122 88 101 132 124
3190.0 106 118 124 120 122 135 129 112 108 99
3230.0 102 147 147 116 91 75 92 119 115 90
3270.0 113 155 116 94 108 109 102 115 140 107
3310.0 76 89 105 99 110 96 82 97 111 73
3350.0 53 80 98 114 102 67 48 49 66 71
3390.0 76 83 87 115 118 75 61 67 70 78
3430.0 84 89 112 73 37 44 39 33 29 35
3470.0 83 108 69 76 89 84 85 82 90 102
3510.0 129 151 142 159 206 222 247 285 344 397
3550.0 477 657 924 1362 2109 3190 3947 3716 2682 1628
3590.0 1015 695 493 353 261 190 157 162 133 127
3630.0 113 97 92 80 75 45 39 47 42 26
3670.0 24 35 26 20 30 61 33 0 6 5
3710.0 5 5 5 5 5 3 29 15 5 5
3750.0 5 5 23 41 33 14 5 5 5 5
3790.0 5 5 5 5 5 5 3 17 11 5
3830.0 3 38 29 7 3
##END=
